 vasp.5.4.4.18Apr17-6-g9f103f2a35 (build Aug 24 2017 11:22:49) complex

 executed on             LinuxIFC date 2023.12.25  13:07:33

 INCAR:
 POTCAR:    PAW_PBE In_d 06Sep2000
 POTCAR:    PAW_PBE P 06Sep2000

 POTCAR:    PAW_PBE In_d 06Sep2000
   VRHFIN =In: s2p1

   TITEL  = PAW_PBE In_d 06Sep2000
   POMASS =  114.820; ZVAL   =   13.000    mass and valenz
   ENMAX  =  239.211; ENMIN  =  179.409 eV

 POTCAR:    PAW_PBE P 06Sep2000
   VRHFIN =P : s2p3

   TITEL  = PAW_PBE P 06Sep2000
   POMASS =   30.974; ZVAL   =    5.000    mass and valenz
   ENMAX  =  255.040; ENMIN  =  191.280 eV

  PAW_PBE In_d 06Sep2000                :
  PAW_PBE P 06Sep2000                   :

 POSCAR: In1 P1
  positions in direct lattice
 exchange correlation table for  LEXCH =        8
   RHO(1)=    0.500       N(1)  =     2000
   RHO(2)=  100.500       N(2)  =     4000

 ion  position               nearest neighbor table
   1  0.000  0.000  0.000-   2 2.56   2 2.56   2 2.56   2 2.56
   2  0.250  0.250  0.250-   1 2.56   1 2.56   1 2.56   1 2.56

  LATTYP: Found a face centered cubic cell.
 ALAT       =     5.9039523179

  Lattice vectors:

 A1 = (  -2.9519761589,   0.0000000000,   2.9519761589)
 A2 = (   0.0000000000,   2.9519761589,   2.9519761589)
 A3 = (  -2.9519761589,   2.9519761589,   0.0000000000)

Analysis of symmetry for initial positions (statically):
 Subroutine PRICEL returns:
 Original cell was already a primitive cell.

 Routine SETGRP: Setting up the symmetry group for a
 face centered cubic supercell.

 Subroutine GETGRP returns: Found  2 space group operations
 (whereof  2 operations were pure point group operations)
 out of a pool of 48 trial point group operations.

The static configuration has the point symmetry C_1h.

Analysis of symmetry for dynamics (positions and initial velocities):
 Subroutine PRICEL returns:
 Original cell was already a primitive cell.

[...]

The dynamic configuration has the point symmetry C_1h.

 Subroutine INISYM returns: Found  2 space group operations
 (whereof  2 operations are pure point group operations),
 and found     1 'primitive' translations

 KPOINTS: pymatgen with grid density = 3000 / numb

Automatic generation of k-mesh.
Space group operators:
 irot       det(A)        alpha          n_x          n_y          n_z        tau_x        tau_y        tau_z
    1     1.000000     0.000000     1.000000     0.000000     0.000000     0.000000     0.000000     0.000000
    2    -1.000000   180.000000     0.707107    -0.707107     0.000000     0.000000     0.000000     0.000000

 Subroutine IBZKPT returns following result:

 Found    476 irreducible k-points:

 Following reciprocal coordinates:
            Coordinates               Weight
  0.000000  0.000000  0.000000      1.000000
  0.083333 -0.000000 -0.000000      2.000000
  0.166667 -0.000000 -0.000000      2.000000
  0.250000  0.000000  0.000000      2.000000
  0.333333 -0.000000 -0.000000      2.000000
  0.416667  0.000000  0.000000      2.000000
  0.500000  0.000000  0.000000      1.000000
 -0.000000  0.083333  0.000000      2.000000
  0.083333  0.083333  0.000000      2.000000
  0.166667  0.083333  0.000000      2.000000
  0.250000  0.083333 -0.000000      2.000000
  0.333333  0.083333  0.000000      2.000000
  0.416667  0.083333 -0.000000      2.000000
  0.500000  0.083333  0.000000      2.000000
 -0.416667  0.083333 -0.000000      2.000000
 -0.333333  0.083333  0.000000      2.000000
 -0.250000  0.083333  0.000000      2.000000
 -0.166667  0.083333 -0.000000      2.000000
 -0.083333  0.083333  0.000000      2.000000
  0.000000  0.166667  0.000000      2.000000
  0.083333  0.166667  0.000000      2.000000
  0.166667  0.166667  0.000000      2.000000
  0.250000  0.166667  0.000000      2.000000
  0.333333  0.166667  0.000000      2.000000
  0.416667  0.166667  0.000000      2.000000
  0.500000  0.166667 -0.000000      2.000000
 -0.416667  0.166667  0.000000      2.000000
 -0.333333  0.166667 -0.000000      2.000000
 -0.250000  0.166667  0.000000      2.000000
 -0.166667  0.166667  0.000000      2.000000
 -0.083333  0.166667 -0.000000      2.000000
  0.000000  0.250000 -0.000000      2.000000
  0.083333  0.250000  0.000000      2.000000
  0.166667  0.250000  0.000000      2.000000
  0.250000  0.250000  0.000000      2.000000
  0.333333  0.250000  0.000000      2.000000
  0.416667  0.250000  0.000000      2.000000
  0.500000  0.250000  0.000000      2.000000
 -0.416667  0.250000  0.000000      2.000000
 -0.333333  0.250000  0.000000      2.000000
 -0.250000  0.250000 -0.000000      2.000000
 -0.166667  0.250000  0.000000      2.000000
 -0.083333  0.250000  0.000000      2.000000
 -0.000000  0.333333  0.000000      2.000000
  0.083333  0.333333 -0.000000      2.000000
  0.166667  0.333333  0.000000      2.000000
  0.250000  0.333333  0.000000      2.000000
  0.333333  0.333333  0.000000      2.000000
  0.416667  0.333333  0.000000      2.000000
  0.500000  0.333333  0.000000      2.000000
 -0.416667  0.333333  0.000000      2.000000
 -0.333333  0.333333  0.000000      2.000000
 -0.250000  0.333333  0.000000      2.000000
 -0.166667  0.333333 -0.000000      2.000000
 -0.083333  0.333333 -0.000000      2.000000
  0.000000  0.416667  0.000000      2.000000
  0.083333  0.416667  0.000000      2.000000
  0.166667  0.416667 -0.000000      2.000000
  0.250000  0.416667  0.000000      2.000000
  0.333333  0.416667  0.000000      2.000000
[...]
  0.333333  0.166667  0.500000      4.000000
  0.416667  0.166667  0.500000      4.000000
  0.500000  0.166667  0.500000      4.000000
 -0.416667  0.166667  0.500000      4.000000
 -0.333333  0.166667  0.500000      4.000000
 -0.250000  0.166667  0.500000      4.000000
 -0.166667  0.166667  0.500000      4.000000
 -0.083333  0.166667  0.500000      4.000000
  0.000000  0.250000  0.500000      4.000000
  0.083333  0.250000  0.500000      4.000000
  0.166667  0.250000  0.500000      4.000000
  0.250000  0.250000  0.500000      2.000000
 -0.416667  0.250000  0.500000      4.000000
 -0.333333  0.250000  0.500000      4.000000
 -0.250000  0.250000  0.500000      2.000000

 Following cartesian coordinates:
            Coordinates               Weight
  0.000000  0.000000  0.000000      1.000000
 -0.014115 -0.014115  0.014115      2.000000
 -0.028230 -0.028230  0.028230      2.000000
 -0.042345 -0.042345  0.042345      2.000000
 -0.056459 -0.056459  0.056459      2.000000
 -0.070574 -0.070574  0.070574      2.000000
 -0.084689 -0.084689  0.084689      1.000000
  0.014115  0.014115  0.014115      2.000000
  0.000000  0.000000  0.028230      2.000000
 -0.014115 -0.014115  0.042345      2.000000
 -0.028230 -0.028230  0.056459      2.000000
 -0.042345 -0.042345  0.070574      2.000000
 -0.056459 -0.056459  0.084689      2.000000
 -0.070574 -0.070574  0.098804      2.000000
  0.084689  0.084689 -0.056459      2.000000
  0.070574  0.070574 -0.042345      2.000000
  0.056459  0.056459 -0.028230      2.000000
  0.042345  0.042345 -0.014115      2.000000
  0.028230  0.028230  0.000000      2.000000
  0.028230  0.028230  0.028230      2.000000
  0.014115  0.014115  0.042345      2.000000
 -0.000000 -0.000000  0.056459      2.000000
 -0.014115 -0.014115  0.070574      2.000000
 -0.028230 -0.028230  0.084689      2.000000
 -0.042345 -0.042345  0.098804      2.000000
 -0.056459 -0.056459  0.112919      2.000000
  0.098804  0.098804 -0.042345      2.000000
  0.084689  0.084689 -0.028230      2.000000
  0.070574  0.070574 -0.014115      2.000000
  0.056459  0.056459  0.000000      2.000000
  0.042345  0.042345  0.014115      2.000000
  0.042345  0.042345  0.042345      2.000000
  0.028230  0.028230  0.056459      2.000000
  0.014115  0.014115  0.070574      2.000000
  0.000000  0.000000  0.084689      2.000000
 -0.014115 -0.014115  0.098804      2.000000
 -0.028230 -0.028230  0.112919      2.000000
 -0.042345 -0.042345  0.127034      2.000000
  0.112919  0.112919 -0.028230      2.000000
  0.098804  0.098804 -0.014115      2.000000
  0.084689  0.084689  0.000000      2.000000
  0.070574  0.070574  0.014115      2.000000
  0.056459  0.056459  0.028230      2.000000
  0.056459  0.056459  0.056459      2.000000
  0.042345  0.042345  0.070574      2.000000
  0.028230  0.028230  0.084689      2.000000
  0.014115  0.014115  0.098804      2.000000
  0.000000  0.000000  0.112919      2.000000
 -0.014115 -0.014115  0.127034      2.000000
 -0.028230 -0.028230  0.141148      2.000000
  0.127034  0.127034 -0.014115      2.000000
  0.112919  0.112919  0.000000      2.000000
  0.098804  0.098804  0.014115      2.000000
  0.084689  0.084689  0.028230      2.000000
  0.070574  0.070574  0.042345      2.000000
  0.070574  0.070574  0.070574      2.000000
  0.056459  0.056459  0.084689      2.000000
  0.042345  0.042345  0.098804      2.000000
  0.028230  0.028230  0.112919      2.000000
  0.014115  0.014115  0.127034      2.000000
[...]
 -0.112919  0.056459  0.000000      4.000000
 -0.127034  0.042345  0.014115      4.000000
 -0.141148  0.028230  0.028230      4.000000
  0.014115  0.183493 -0.127034      4.000000
 -0.000000  0.169378 -0.112919      4.000000
 -0.014115  0.155263 -0.098804      4.000000
 -0.028230  0.141148 -0.084689      4.000000
 -0.042345  0.127034 -0.070574      4.000000
 -0.042345  0.127034 -0.042345      4.000000
 -0.056459  0.112919 -0.028230      4.000000
 -0.070574  0.098804 -0.014115      4.000000
 -0.084689  0.084689  0.000000      2.000000
  0.028230  0.197608 -0.112919      4.000000
  0.014115  0.183493 -0.098804      4.000000
 -0.000000  0.169378 -0.084689      2.000000

 Subroutine IBZKPT_HF returns following result:

 Found   1728 k-points in 1st BZ
 the following   1728 k-points will be used (e.g. in the exchange kernel)
 Following reciprocal coordinates:   # in IRBZ
  0.000000  0.000000  0.000000    0.00057870   1 t-inv F
  0.083333 -0.000000 -0.000000    0.00057870   2 t-inv F
  0.166667 -0.000000 -0.000000    0.00057870   3 t-inv F
  0.250000  0.000000  0.000000    0.00057870   4 t-inv F
  0.333333 -0.000000 -0.000000    0.00057870   5 t-inv F
  0.416667  0.000000  0.000000    0.00057870   6 t-inv F
  0.500000  0.000000  0.000000    0.00057870   7 t-inv F
 -0.000000  0.083333  0.000000    0.00057870   8 t-inv F
  0.083333  0.083333  0.000000    0.00057870   9 t-inv F
  0.166667  0.083333  0.000000    0.00057870  10 t-inv F
  0.250000  0.083333 -0.000000    0.00057870  11 t-inv F
  0.333333  0.083333  0.000000    0.00057870  12 t-inv F
  0.416667  0.083333 -0.000000    0.00057870  13 t-inv F
  0.500000  0.083333  0.000000    0.00057870  14 t-inv F
 -0.416667  0.083333 -0.000000    0.00057870  15 t-inv F
 -0.333333  0.083333  0.000000    0.00057870  16 t-inv F
 -0.250000  0.083333  0.000000    0.00057870  17 t-inv F
 -0.166667  0.083333 -0.000000    0.00057870  18 t-inv F
 -0.083333  0.083333  0.000000    0.00057870  19 t-inv F
  0.000000  0.166667  0.000000    0.00057870  20 t-inv F
  0.083333  0.166667  0.000000    0.00057870  21 t-inv F
  0.166667  0.166667  0.000000    0.00057870  22 t-inv F
  0.250000  0.166667  0.000000    0.00057870  23 t-inv F
  0.333333  0.166667  0.000000    0.00057870  24 t-inv F
  0.416667  0.166667  0.000000    0.00057870  25 t-inv F
[...]
      9       4.9515      2.00000
     10       5.5439      0.00000
     11       9.0438      0.00000
     12       9.0438      0.00000
     13       9.0438      0.00000
     14      13.4317      0.00000
     15      14.3659      0.00000
     16      14.3659      0.00000

[...]

 soft charge-density along one line, spin component           1
         0         1         2         3         4         5         6         7         8         9
 total charge-density along one line

------------------------ aborting loop because EDIFF is reached ----------------------------------------

  FORCE on cell =-STRESS in cart. coord.  units (eV):
  Direction    XX          YY          ZZ          XY          YZ          ZX
  Alpha Z    31.71722    31.71722    31.71722
  Ewald    -403.94658  -403.94658  -403.94658     0.00009     0.00003     0.00003
  Hartree   185.04418   185.04418   185.04418     0.00004     0.00001     0.00001
  E(xc)     -83.00789   -83.00789   -83.00789    -0.00000     0.00000    -0.00000
  Local    -125.51333  -125.51333  -125.51333    -0.00013    -0.00004    -0.00004
  n-local    96.33200    96.55146    96.44173     0.00000     0.04501    -0.04501
  augment   148.97907   148.97907   148.97907    -0.00001     0.00001    -0.00001
  Kinetic   150.46811   151.22199   150.84505    -0.00000     0.32144    -0.32144
  Fock        0.00000     0.00000     0.00000     0.00000     0.00000     0.00000
  Total       0.55946     0.55946     0.55946    -0.00000     0.00000     0.00000
  in kB      17.42237    17.42237    17.42237    -0.00009     0.00003     0.00003

 VOLUME and BASIS-vectors are now :
  energy-cutoff  :      520.00
  volume of cell :       51.45
      direct lattice vectors                 reciprocal lattice vectors
    -2.951976159  0.000000000  2.951976159    -0.169378062 -0.169378062  0.169378062
     0.000000000  2.951976159  2.951976159     0.169378062  0.169378062  0.169378062
    -2.951976159  2.951976159  0.000000000    -0.169378062  0.169378062 -0.169378062

  length of vectors
     4.174724720  4.174724720  4.174724720     0.293371409  0.293371409  0.293371409

 FORCES acting on ions
    electron-ion (+dipol)            ewald-force                    non-local-force                 convergence-correction
   -.820E-05 -.854E-05 -.255E-04   0.864E-05 0.864E-05 0.259E-04   0.778E-06 0.778E-06 0.165E-05   0.330E-07 0.328E-07 -.157E-06
   0.803E-05 0.798E-05 0.230E-04   -.864E-05 -.864E-05 -.259E-04   -.207E-06 -.207E-06 0.257E-05   -.367E-07 -.367E-07 -.112E-06
   -.169E-06 -.563E-06 -.253E-05   0.319E-15 0.109E-14 -.112E-14   0.572E-06 0.572E-06 0.422E-05   -.376E-08 -.392E-08 -.268E-06

 POSITION                                       TOTAL-FORCE (eV/Angst)
      0.00000      0.00000      0.00000         0.000001      0.000001      0.000001
     -1.47599      1.47599      1.47599        -0.000001     -0.000001     -0.000001
    total drift:                                0.000000      0.000000      0.000001

  FREE ENERGIE OF THE ION-ELECTRON SYSTEM (eV)
  free  energy   TOTEN  =        -8.39986141 eV

  energy  without entropy=       -8.39986141  energy(sigma->0) =       -8.39986141

 Found     4 degrees of freedom:

     directions for atom     1:  z
     directions for atom     2:  z
 Linear response reoptimize wavefunctions
 Linear response to external field (no local field effect), progress :
  Direction:   1
  LATTYP: Found a face centered cubic cell.
 ALAT       =     5.9039523179

[...]

The dynamic configuration has the point symmetry C_1 .

[...]

----------------------------------------- Iteration    1(   1)  ---------------------------------------

 Free energy of the ion-electron system (eV)
  -Hartree energ DENC   =         0.00000000
  -V(xc)+E(xc)   XCENC  =         0.00000000
  PAW double counting   =         0.00000000        0.00000000
  entropy T*S    EENTRO =         0.00000000
  eigenvalues    EBANDS =        -1.15003682
  free energy    TOTEN  =        -1.15003682 eV

  energy without entropy =       -1.15003682

[...]

 change of polarisation eV/A/(eV/A) component  1 :     2.800    -0.001    -0.217
 dielectric tensor                  component  1 :    10.846    -0.005    -0.762

 Linear response to external field (no local field effect), progress :
  Direction:   2
  LATTYP: Found a face centered cubic cell.
 ALAT       =     5.9039523179

[...]

 Linear response to external field (no local field effect), progress :
  Direction:   3
  LATTYP: Found a face centered cubic cell.
 ALAT       =     5.9039523179

[...]

 HEAD OF MICROSCOPIC STATIC DIELECTRIC TENSOR (INDEPENDENT PARTICLE, excluding Hartree and local field effects)
          11.622075    -0.005151    -0.000078
          -0.005151    11.622075    -0.000078
           0.000078     0.000078    11.619860

 Linear response to external field, progress :
  Direction:   1
  LATTYP: Found a face centered cubic cell.
 ALAT       =     5.9039523179

[...]

 PIEZOELECTRIC TENSOR FIELD DIRECTION 1  (e Angst)
    -0.00056  0.00257  0.00084           ( -0.00007  0.00001  0.00000)
     0.00257  0.00157  2.66913           (  0.00001 -0.00002  0.03658)
     0.00084  2.66913  0.00058           (  0.00000  0.03658 -0.00007)

 PIEZOELECTRIC TENSOR FIELD DIRECTION 1  (C/m^2)
    -0.00018  0.00080  0.00026
     0.00080  0.00049  0.83121
     0.00026  0.83121  0.00018

      POSITION         DIRECTION 1           BORN EFFECTIVE CHARGE    (rigid.aug.   ionic)
      0.00000      0.00000      0.00000     2.57358  0.00042  0.00040 ( -7.01860 13.00000)
     -1.47599      1.47599      1.47599    -2.57340 -0.00079 -0.00117 (  0.52363  5.00000)
    total drift (improves with k-points):   0.00018 -0.00037 -0.00076

[...]

 Linear response to external field, progress :
  Direction:   3
  LATTYP: Found a face centered cubic cell.
 ALAT       =     5.9039523179

[...]

 change of polarisation eV/A/(eV/A) component  3 :    -0.214     0.214     2.876
 dielectric tensor                  component  3 :    -0.751     0.751    11.114

 PIEZOELECTRIC TENSOR FIELD DIRECTION 3  (e Angst)
    -0.00151  2.66434  0.00080           (  0.00009  0.03173  0.00000)
     2.66434 -0.00151  0.00080           (  0.03173  0.00009  0.00000)
     0.00080  0.00080 -0.00198           (  0.00000  0.00000  0.00009)

 PIEZOELECTRIC TENSOR FIELD DIRECTION 3  (C/m^2)
    -0.00047  0.82972  0.00025
     0.82972 -0.00047  0.00025
     0.00025  0.00025 -0.00062

      POSITION         DIRECTION 3           BORN EFFECTIVE CHARGE    (rigid.aug.   ionic)
      0.00000      0.00000      0.00000    -0.00006 -0.00006  2.57378 ( -7.01860 13.00000)
     -1.47599      1.47599      1.47599     0.00012  0.00012 -2.57396 (  0.52363  5.00000)
    total drift (improves with k-points):   0.00006  0.00006 -0.00018

[...]

 MACROSCOPIC STATIC DIELECTRIC TENSOR (including local field effects in DFT)
          11.116272    -0.004883    -0.000059
          -0.004883    11.116272    -0.000059
           0.000015     0.000015    11.114325

 Linear response:
   Degrees of freedom DOF   =            4
 Linear response progress:
  Degree of freedom:   1/  4
  LATTYP: Found a face centered cubic cell.
 ALAT       =     5.9039523179

[...]

 INTERNAL STRAIN TENSOR  FOR ION    1  DIRECTION 1   (eV/Angst):
     0.00502 -0.05016  0.36656
     0.04431 -0.00236 -7.49539
    -0.37521 -7.68110 -0.00322

 POSITION                   FORCE-CONSTANT FOR ION    1 DIRECTION 1 (eV/Angst/Angst)
      0.00000      0.00000      0.00000        -7.771797      0.000141      0.000398
     -1.47599      1.47599      1.47599         7.771797     -0.000141     -0.000398
    total drift:                                0.000000      0.000000     -0.000000

 BORN EFFECTIVE CHARGE FOR ION    1 DIRECTION 1 :   2.574   0.000  -0.000
                   rigid augmentation           :  -7.019  -0.000   0.000
                   ionic contribution           :  13.000  -0.000   0.000
                   Berry contribution           :  -3.408   0.000  -0.000

 Linear response progress:
  Degree of freedom:   2/  4
  LATTYP: Found a face centered cubic cell.
 ALAT       =     5.9039523179

[...]

The dynamic configuration has the point symmetry C_1 .

[...]

 Linear response progress:
  Degree of freedom:   4/  4
  LATTYP: Found a face centered cubic cell.
 ALAT       =     5.9039523179

[...]

----------------------------------------- Iteration    9(  12)  ---------------------------------------

 Broyden mixing:
  rms(total) = 0.22075E-03    rms(broyden)= 0.22075E-03
  rms(prec ) = 0.24816E-03
  weight for this iteration     100.00

 eigenvalues of (default mixing * dielectric matrix)
  average eigenvalue GAMMA=   1.5859
  3.1799  2.6579  2.0890  1.7312  1.7312  1.0484  1.0484  0.8938  0.7395  0.7395

 Free energy of the ion-electron system (eV)
  -Hartree energ DENC   =        -0.02396985
  -V(xc)+E(xc)   XCENC  =         0.00011700
  PAW double counting   =         0.00742319       -0.00742280
  entropy T*S    EENTRO =        -0.00000000
  eigenvalues    EBANDS =        -0.02546427
  free energy    TOTEN  =        -0.04931673 eV

  energy without entropy =       -0.04931673

[...]

 k-point 476 :      -0.2500    0.2500    0.5000
  band No.  band energies     occupation
      1      -0.0000      0.00000
      2      -0.0000      0.00000
      3      -0.0001      0.00000
      4      -0.0001      0.00000
      5      -0.0000      0.00000
      6       0.0002      0.00000
      7       0.0001      0.00000
      8       0.0002      0.00000
      9       0.0001      0.00000
     10       0.0001      0.00000
     11       0.0001      0.00000
     12       0.0001      0.00000
     13       0.0001      0.00000
     14       0.0001      0.00000
     15       0.0001      0.00000
     16       0.0008      0.00000

------------------------ aborting loop because EDIFF is reached ----------------------------------------

 INTERNAL STRAIN TENSOR  FOR ION    2  DIRECTION 3   (eV/Angst):
     0.00201  7.70908  0.05105
     7.70908  0.00201  0.05105
    -0.03519 -0.03519 -0.00268

 POSITION                   FORCE-CONSTANT FOR ION    2 DIRECTION 3 (eV/Angst/Angst)
      0.00000      0.00000      0.00000         0.000183      0.000183      7.747759
     -1.47599      1.47599      1.47599        -0.000183     -0.000183     -7.747759
    total drift:                               -0.000000      0.000000      0.000000

 BORN EFFECTIVE CHARGE FOR ION    2 DIRECTION 3 :  -0.000  -0.000  -2.574
                   rigid augmentation           :   0.000  -0.000   0.524
                   ionic contribution           :   0.000  -0.000   5.000
                   Berry contribution           :  -0.000  -0.000  -8.098

  LATTYP: Found a face centered cubic cell.
 ALAT       =     5.9039523179

  Lattice vectors:

 A1 = (  -2.9519761589,   0.0000000000,   2.9519761589)
 A2 = (   0.0000000000,   2.9519761589,   2.9519761589)
 A3 = (  -2.9519761589,   2.9519761589,   0.0000000000)

Analysis of symmetry for initial positions (statically):
 Subroutine PRICEL returns:
 Original cell was already a primitive cell.

[...]

The static configuration has the point symmetry C_1h.

Analysis of symmetry for dynamics (positions and initial velocities):
 Subroutine PRICEL returns:
 Original cell was already a primitive cell.

 Routine SETGRP: Setting up the symmetry group for a
 face centered cubic supercell.

 Subroutine GETGRP returns: Found  2 space group operations
 (whereof  2 operations were pure point group operations)
 out of a pool of 48 trial point group operations.

The dynamic configuration has the point symmetry C_1h.

 Subroutine INISYM returns: Found  2 space group operations
 (whereof  2 operations are pure point group operations),
 and found     1 'primitive' translations

 MACROSCOPIC STATIC DIELECTRIC TENSOR (including local field effects in DFT)
          11.116272    -0.004883    -0.000059
          -0.004883    11.116272    -0.000059
           0.000015     0.000015    11.114325

 PIEZOELECTRIC TENSOR  for field in x, y, z        (e  Angst)
          XX          YY          ZZ          XY          YZ          ZX
  x    -0.00056     0.00157     0.00058     0.00257     2.66913     0.00084
  y     0.00002    -0.00143    -0.00021    -0.00242     0.00108     2.66916
  z    -0.00151    -0.00151    -0.00198     2.66434     0.00080     0.00080

 PIEZOELECTRIC TENSOR  for field in x, y, z        (C/m^2)
          XX          YY          ZZ          XY          YZ          ZX
  x    -0.00031     0.00025     0.00006     0.00002     0.83122     0.00030
  y     0.00025    -0.00031     0.00006     0.00002     0.00030     0.83122
  z    -0.00047    -0.00047    -0.00062     0.82972     0.00025     0.00025

 BORN EFFECTIVE CHARGES (in e, cummulative output)
 ion    1
    1     2.57349     0.00060     0.00079
    2     0.00059     2.57350    -0.00077
    3    -0.00009    -0.00009     2.57387
 ion    2
    1    -2.57349    -0.00060    -0.00079
    2    -0.00059    -2.57350     0.00077
    3     0.00009     0.00009    -2.57387

 INTERNAL STRAIN TENSOR FOR ION    1 for displacements in x,y,z  (eV/Angst):
          X           Y           Z          XY          YZ          ZX
  x     0.00502    -0.00236    -0.00322     0.04431    -7.68110     0.36656
  y    -0.00236     0.00502    -0.00322    -0.05016    -0.37521    -7.49539
  z    -0.00103    -0.00103     0.00282    -7.61852     0.03470    -0.06042

 INTERNAL STRAIN TENSOR FOR ION    2 for displacements in x,y,z  (eV/Angst):
          X           Y           Z          XY          YZ          ZX
  x    -0.00333     0.00014     0.00193    -0.03968     7.77496    -0.32123
  y     0.00014    -0.00333     0.00193     0.04237     0.32501     7.60971
  z     0.00201     0.00201    -0.00268     7.70908    -0.03519     0.05105

 SECOND DERIVATIVES (NOT SYMMETRIZED)
               1X          1Y          1Z          2X          2Y          2Z
  1X    -7.771797    0.000141    0.000398    7.771797   -0.000141   -0.000398
  1Y     0.000141   -7.771797    0.000398   -0.000141    7.771797   -0.000398
  1Z     0.000126    0.000126   -7.771806   -0.000126   -0.000126    7.771806
  2X     7.747540   -0.000043    0.000269   -7.747540    0.000043   -0.000269
  2Y    -0.000043    7.747540    0.000269    0.000043   -7.747540   -0.000269
  2Z     0.000183    0.000183    7.747759   -0.000183   -0.000183   -7.747759

 Eigenvectors and eigenvalues of the dynamical matrix

   1 f  =    8.813470 THz    55.376667 2PiTHz  293.985714 cm-1    36.449596 meV
             X         Y         Z           dx          dy          dz
      0.000000  0.000000  0.000000    -0.151849   -0.151849   -0.408462
     -1.475988  1.475988  1.475988     0.291942    0.291942    0.785227

[...]

   3 f  =    8.813232 THz    55.375168 2PiTHz  293.977759 cm-1    36.448610 meV
             X         Y         Z           dx          dy          dz
      0.000000  0.000000  0.000000    -0.288839   -0.288839    0.214775
     -1.475988  1.475988  1.475988     0.555233    0.555233   -0.412855

   4 f/i=    0.005443 THz     0.034201 2PiTHz    0.181566 cm-1     0.022511 meV
             X         Y         Z           dx          dy          dz
      0.000000  0.000000  0.000000    -0.422839   -0.422839   -0.655330
     -1.475988  1.475988  1.475988    -0.219952   -0.219952   -0.340878

[...]

   6 f/i=    0.005765 THz     0.036225 2PiTHz    0.192314 cm-1     0.023844 meV
             X         Y         Z           dx          dy          dz
      0.000000  0.000000  0.000000     0.463380    0.463380   -0.597974
     -1.475988  1.475988  1.475988     0.241054    0.241054   -0.311081

 MACROSCOPIC STATIC DIELECTRIC TENSOR IONIC CONTRIBUTION
           3.001916     0.001422     0.000824
           0.001422     3.001932    -0.000987
           0.000824    -0.000987     3.002760

 ELASTIC MODULI IONIC CONTR (kBar)
 Direction    XX          YY          ZZ          XY          YZ          ZX
 XX          -0.0001      0.0000      0.0000     -0.0478      0.1280     -0.0439
 YY           0.0000     -0.0001      0.0000     -0.0459     -0.0326      0.1280
 ZZ           0.0000      0.0000     -0.0001      0.0845     -0.0838     -0.0739
 XY          -0.0478     -0.0459      0.0845   -235.7247      2.3116     -3.1752
 YZ           0.1280     -0.0326     -0.0838      2.3116   -240.1772      0.0588
 ZX          -0.0439      0.1280     -0.0739     -3.1752      0.0588   -229.4053

 PIEZOELECTRIC TENSOR IONIC CONTR  for field in x, y, z        (C/m^2)
          XX          YY          ZZ          XY          YZ          ZX
  x     0.00043    -0.00013    -0.00027     0.00409    -0.79816     0.03533
  y    -0.00013     0.00043    -0.00027    -0.00454    -0.03635    -0.78002
  z    -0.00016    -0.00016     0.00028    -0.79163     0.00364    -0.00573