 vasp.5.4.4.18Apr17-6-g9f103f2a35 (build Aug 24 2017 11:22:49) complex

 executed on             LinuxIFC date 2023.12.25  13:07:18

 INCAR:
 POTCAR:    PAW_PBE Mg 13Apr2007
 POTCAR:    PAW_PBE O 08Apr2002

 POTCAR:    PAW_PBE Mg 13Apr2007
   VRHFIN =Mg: s2p0

   TITEL  = PAW_PBE Mg 13Apr2007
   POMASS =   24.305; ZVAL   =    2.000    mass and valenz
   ENMAX  =  200.000; ENMIN  =  100.000 eV

 POTCAR:    PAW_PBE O 08Apr2002
   VRHFIN =O: s2p4

   TITEL  = PAW_PBE O 08Apr2002
   POMASS =   16.000; ZVAL   =    6.000    mass and valenz
   ENMAX  =  400.000; ENMIN  =  300.000 eV

  PAW_PBE Mg 13Apr2007                  :
  PAW_PBE O 08Apr2002                   :

 POSCAR: Mg1 O1
  positions in direct lattice
 exchange correlation table for  LEXCH =        8
   RHO(1)=    0.500       N(1)  =     2000
   RHO(2)=  100.500       N(2)  =     4000

 ion  position               nearest neighbor table
   1  0.000  0.000  0.000-   2 2.10   2 2.10   2 2.10   2 2.10   2 2.10   2 2.10
   2  0.500  0.500  0.500-   1 2.10   1 2.10   1 2.10   1 2.10   1 2.10   1 2.10

  LATTYP: Found a face centered cubic cell.
 ALAT       =     4.1940024632

  Lattice vectors:

 A1 = (  -2.0970012316,   0.0000000000,   2.0970012316)
 A2 = (   0.0000000000,   2.0970012316,   2.0970012316)
 A3 = (  -2.0970012316,   2.0970012316,   0.0000000000)

Analysis of symmetry for initial positions (statically):
 Subroutine PRICEL returns:
 Original cell was already a primitive cell.

 Routine SETGRP: Setting up the symmetry group for a
 face centered cubic supercell.

 Subroutine GETGRP returns: Found  8 space group operations
 (whereof  8 operations were pure point group operations)
 out of a pool of 48 trial point group operations.

The static configuration has the point symmetry C_4v.

Analysis of symmetry for dynamics (positions and initial velocities):
 Subroutine PRICEL returns:
 Original cell was already a primitive cell.

[...]

The dynamic configuration has the point symmetry C_4v.

 Subroutine INISYM returns: Found  8 space group operations
 (whereof  8 operations are pure point group operations),
 and found     1 'primitive' translations

 KPOINTS: pymatgen with grid density = 3000 / numb

Automatic generation of k-mesh.
Space group operators:
 irot       det(A)        alpha          n_x          n_y          n_z        tau_x        tau_y        tau_z
    1     1.000000     0.000000     1.000000     0.000000     0.000000     0.000000     0.000000     0.000000
    2     1.000000    90.000000    -1.000000     0.000000    -0.000000     0.000000     0.000000     0.000000
    3    -1.000000   180.000000     0.000000    -0.000000    -1.000000     0.000000     0.000000     0.000000
    4    -1.000000   180.000000     0.000000     0.707107     0.707107     0.000000     0.000000     0.000000
    5    -1.000000   180.000000    -0.000000    -1.000000    -0.000000     0.000000     0.000000     0.000000
    6     1.000000    90.000000     1.000000     0.000000     0.000000     0.000000     0.000000     0.000000
    7     1.000000   180.000000     1.000000     0.000000     0.000000     0.000000     0.000000     0.000000
    8    -1.000000   180.000000    -0.000000    -0.707107     0.707107     0.000000     0.000000     0.000000

 Subroutine IBZKPT returns following result:

 Found    163 irreducible k-points:

 Following reciprocal coordinates:
            Coordinates               Weight
  0.000000  0.000000  0.000000      1.000000
  0.083333 -0.000000  0.000000      8.000000
  0.166667  0.000000 -0.000000      8.000000
  0.250000 -0.000000 -0.000000      8.000000
  0.333333  0.000000  0.000000      8.000000
  0.416667 -0.000000 -0.000000      8.000000
  0.500000 -0.000000 -0.000000      4.000000
  0.083333  0.083333  0.000000      4.000000
  0.166667  0.083333 -0.000000     16.000000
  0.250000  0.083333 -0.000000     16.000000
  0.333333  0.083333 -0.000000     16.000000
  0.416667  0.083333 -0.000000     16.000000
  0.500000  0.083333 -0.000000     16.000000
 -0.416667  0.083333  0.000000     16.000000
 -0.333333  0.083333 -0.000000     16.000000
 -0.250000  0.083333 -0.000000     16.000000
 -0.166667  0.083333  0.000000     16.000000
 -0.083333  0.083333 -0.000000      8.000000
  0.166667  0.166667  0.000000      4.000000
  0.250000  0.166667  0.000000     16.000000
  0.333333  0.166667  0.000000     16.000000
  0.416667  0.166667  0.000000     16.000000
  0.500000  0.166667  0.000000     16.000000
 -0.416667  0.166667 -0.000000     16.000000
 -0.333333  0.166667  0.000000     16.000000
 -0.250000  0.166667  0.000000     16.000000
 -0.166667  0.166667 -0.000000      8.000000
  0.250000  0.250000  0.000000      4.000000
  0.333333  0.250000 -0.000000     16.000000
  0.416667  0.250000 -0.000000     16.000000
  0.500000  0.250000 -0.000000     16.000000
 -0.416667  0.250000  0.000000     16.000000
 -0.333333  0.250000  0.000000     16.000000
 -0.250000  0.250000  0.000000      8.000000
  0.333333  0.333333  0.000000      4.000000
  0.416667  0.333333  0.000000     16.000000
  0.500000  0.333333 -0.000000     16.000000
 -0.416667  0.333333 -0.000000     16.000000
 -0.333333  0.333333 -0.000000      8.000000
  0.416667  0.416667  0.000000      4.000000
  0.500000  0.416667 -0.000000     16.000000
 -0.416667  0.416667  0.000000      8.000000
  0.500000  0.500000  0.000000      2.000000
  0.083333 -0.000000  0.083333      2.000000
  0.166667 -0.000000  0.083333      8.000000
  0.250000 -0.000000  0.083333      8.000000
  0.333333  0.000000  0.083333      8.000000
  0.416667 -0.000000  0.083333      8.000000
  0.500000 -0.000000  0.083333      8.000000
 -0.416667 -0.000000  0.083333      8.000000
 -0.333333 -0.000000  0.083333      8.000000
 -0.250000 -0.000000  0.083333      8.000000
 -0.166667  0.000000  0.083333      8.000000
 -0.083333 -0.000000  0.083333      4.000000
  0.250000  0.166667  0.083333      8.000000
  0.333333  0.166667  0.083333     16.000000
  0.416667  0.166667  0.083333     16.000000
  0.500000  0.166667  0.083333     16.000000
 -0.416667  0.166667  0.083333      8.000000
  0.166667  0.250000  0.083333      8.000000
[...]
  0.333333 -0.083333  0.250000      8.000000
  0.333333 -0.000000  0.333333      2.000000
  0.416667  0.000000  0.333333      8.000000
  0.500000  0.000000  0.333333      8.000000
 -0.416667 -0.000000  0.333333      8.000000
 -0.333333 -0.000000  0.333333      4.000000
  0.416667 -0.250000  0.333333      8.000000
  0.416667 -0.166667  0.333333     16.000000
  0.500000 -0.166667  0.333333      4.000000
  0.416667 -0.083333  0.333333      8.000000
  0.416667 -0.000000  0.416667      2.000000
  0.500000 -0.000000  0.416667      8.000000
 -0.416667  0.000000  0.416667      4.000000
  0.500000 -0.083333  0.416667      4.000000
  0.500000 -0.000000  0.500000      1.000000

 Following cartesian coordinates:
            Coordinates               Weight
  0.000000  0.000000  0.000000      1.000000
 -0.019870 -0.019870  0.019870      8.000000
 -0.039739 -0.039739  0.039739      8.000000
 -0.059609 -0.059609  0.059609      8.000000
 -0.079479 -0.079479  0.079479      8.000000
 -0.099348 -0.099348  0.099348      8.000000
 -0.119218 -0.119218  0.119218      4.000000
 -0.000000 -0.000000  0.039739      4.000000
 -0.019870 -0.019870  0.059609     16.000000
 -0.039739 -0.039739  0.079479     16.000000
 -0.059609 -0.059609  0.099348     16.000000
 -0.079479 -0.079479  0.119218     16.000000
 -0.099348 -0.099348  0.139088     16.000000
  0.119218  0.119218 -0.079479     16.000000
  0.099348  0.099348 -0.059609     16.000000
  0.079479  0.079479 -0.039739     16.000000
  0.059609  0.059609 -0.019870     16.000000
  0.039739  0.039739  0.000000      8.000000
  0.000000  0.000000  0.079479      4.000000
 -0.019870 -0.019870  0.099348     16.000000
 -0.039739 -0.039739  0.119218     16.000000
 -0.059609 -0.059609  0.139088     16.000000
 -0.079479 -0.079479  0.158957     16.000000
  0.139088  0.139088 -0.059609     16.000000
  0.119218  0.119218 -0.039739     16.000000
  0.099348  0.099348 -0.019870     16.000000
  0.079479  0.079479  0.000000      8.000000
  0.000000  0.000000  0.119218      4.000000
 -0.019870 -0.019870  0.139088     16.000000
 -0.039739 -0.039739  0.158957     16.000000
 -0.059609 -0.059609  0.178827     16.000000
  0.158957  0.158957 -0.039739     16.000000
  0.139088  0.139088 -0.019870     16.000000
  0.119218  0.119218  0.000000      8.000000
  0.000000  0.000000  0.158957      4.000000
 -0.019870 -0.019870  0.178827     16.000000
 -0.039739 -0.039739  0.198696     16.000000
  0.178827  0.178827 -0.019870     16.000000
  0.158957  0.158957  0.000000      8.000000
  0.000000  0.000000  0.198696      4.000000
 -0.019870 -0.019870  0.218566     16.000000
  0.198696  0.198696  0.000000      8.000000
  0.000000  0.000000  0.238436      2.000000
 -0.039739  0.000000 -0.000000      2.000000
 -0.059609 -0.019870  0.019870      8.000000
 -0.079479 -0.039739  0.039739      8.000000
 -0.099348 -0.059609  0.059609      8.000000
 -0.119218 -0.079479  0.079479      8.000000
 -0.139088 -0.099348  0.099348      8.000000
  0.079479  0.119218 -0.119218      8.000000
  0.059609  0.099348 -0.099348      8.000000
  0.039739  0.079479 -0.079479      8.000000
  0.019870  0.059609 -0.059609      8.000000
  0.000000  0.039739 -0.039739      4.000000
 -0.039739  0.000000  0.079479      8.000000
 -0.059609 -0.019870  0.099348     16.000000
 -0.079479 -0.039739  0.119218     16.000000
 -0.099348 -0.059609  0.139088     16.000000
  0.119218  0.158957 -0.079479      8.000000
  0.000000  0.039739  0.079479      8.000000
[...]
 -0.158957 -0.039739 -0.000000      8.000000
 -0.158957  0.000000  0.000000      2.000000
 -0.178827 -0.019870  0.019870      8.000000
 -0.198696 -0.039739  0.039739      8.000000
  0.019870  0.178827 -0.178827      8.000000
  0.000000  0.158957 -0.158957      4.000000
 -0.238436 -0.079479 -0.039739      8.000000
 -0.218566 -0.059609 -0.019870     16.000000
 -0.238436 -0.079479  0.000000      4.000000
 -0.198696 -0.039739  0.000000      8.000000
 -0.198696 -0.000000  0.000000      2.000000
 -0.218566 -0.019870  0.019870      8.000000
  0.000000  0.198696 -0.198696      4.000000
 -0.238436 -0.039739  0.000000      4.000000
 -0.238436  0.000000  0.000000      1.000000

 Subroutine IBZKPT_HF returns following result:

 Found   1728 k-points in 1st BZ
 the following   1728 k-points will be used (e.g. in the exchange kernel)
 Following reciprocal coordinates:   # in IRBZ
  0.000000  0.000000  0.000000    0.00057870   1 t-inv F
  0.083333 -0.000000  0.000000    0.00057870   2 t-inv F
  0.166667  0.000000 -0.000000    0.00057870   3 t-inv F
  0.250000 -0.000000 -0.000000    0.00057870   4 t-inv F
  0.333333  0.000000  0.000000    0.00057870   5 t-inv F
  0.416667 -0.000000 -0.000000    0.00057870   6 t-inv F
  0.500000 -0.000000 -0.000000    0.00057870   7 t-inv F
  0.083333  0.083333  0.000000    0.00057870   8 t-inv F
  0.166667  0.083333 -0.000000    0.00057870   9 t-inv F
  0.250000  0.083333 -0.000000    0.00057870  10 t-inv F
  0.333333  0.083333 -0.000000    0.00057870  11 t-inv F
  0.416667  0.083333 -0.000000    0.00057870  12 t-inv F
  0.500000  0.083333 -0.000000    0.00057870  13 t-inv F
[...]
  the test charge radii are     1.0714  0.7215
  (the norm of the test charge is              1.0000)
       1 -34.8743       2 -69.4649

 E-fermi :   3.4192     XC(G=0): -11.1399     alpha+bet :-13.3315

 k-point     1 :       0.0000    0.0000    0.0000
  band No.  band energies     occupation
      1     -14.0458      2.00000
      2       3.2843      2.00000
      3       3.2843      2.00000
      4       3.2843      2.00000
      5       8.1373      0.00000
      6      19.1573      0.00000
      7      19.1573      0.00000
      8      19.1573      0.00000

[...]

 soft charge-density along one line, spin component           1
         0         1         2         3         4         5         6         7         8         9
 total charge-density along one line

------------------------ aborting loop because EDIFF is reached ----------------------------------------

  FORCE on cell =-STRESS in cart. coord.  units (eV):
  Direction    XX          YY          ZZ          XY          YZ          ZX
  Alpha Z    19.80698    19.80698    19.80698
  Ewald    -119.91125  -119.91125  -119.91125     0.00000    -0.00000    -0.00000
  Hartree    46.80152    46.80152    46.80152    -0.00000     0.00000    -0.00000
  E(xc)     -36.49943   -36.49943   -36.49943    -0.00000     0.00000    -0.00000
  Local     -40.06723   -40.06723   -40.06723    -0.00002     0.00002    -0.00002
  n-local   -18.49625   -19.29876   -17.69373     0.47650    -0.05561    -0.21014
  augment     6.86588     6.86588     6.86588     0.00002    -0.00002     0.00002
  Kinetic   142.21209   143.98192   140.44226    -4.45270     0.53564     1.64296
  Fock        0.00000     0.00000     0.00000     0.00000     0.00000     0.00000
  Total       0.71232     0.71232     0.71232    -0.00000     0.00000     0.00000
  in kB      61.88157    61.88157    61.88157    -0.00000     0.00000     0.00000

 VOLUME and BASIS-vectors are now :
  energy-cutoff  :      520.00
  volume of cell :       18.44
      direct lattice vectors                 reciprocal lattice vectors
    -2.097001232  0.000000000  2.097001232    -0.238435721 -0.238435721  0.238435721
     0.000000000  2.097001232  2.097001232     0.238435721  0.238435721  0.238435721
    -2.097001232  2.097001232  0.000000000    -0.238435721  0.238435721 -0.238435721

  length of vectors
     2.965607582  2.965607582  2.965607582     0.412982783  0.412982783  0.412982783

 FORCES acting on ions
    electron-ion (+dipol)            ewald-force                    non-local-force                 convergence-correction
   -.752E-05 -.455E-13 -.418E-13   0.632E-05 -.255E-14 0.261E-15   0.214E-05 -.142E-22 -.989E-23   -.151E-09 -.365E-14 -.370E-14
   0.421E-05 -.100E-10 -.929E-11   -.632E-05 0.263E-14 -.712E-15   0.114E-05 0.739E-23 -.564E-23   0.270E-07 -.271E-12 -.261E-12
   -.330E-05 -.101E-10 -.933E-11   0.107E-14 0.818E-16 -.451E-15   0.328E-05 -.682E-23 -.155E-22   0.269E-07 -.275E-12 -.264E-12

 POSITION                                       TOTAL-FORCE (eV/Angst)
      0.00000      0.00000      0.00000         0.000001      0.000000     -0.000000
     -2.09700      2.09700      2.09700        -0.000001     -0.000000      0.000000
    total drift:                                0.000000     -0.000000     -0.000000

  FREE ENERGIE OF THE ION-ELECTRON SYSTEM (eV)
  free  energy   TOTEN  =       -11.89771495 eV

  energy  without entropy=      -11.89771495  energy(sigma->0) =      -11.89771495

 Found     4 degrees of freedom:

     directions for atom     1:  y
     directions for atom     2:  y
 Linear response reoptimize wavefunctions
 Linear response to external field (no local field effect), progress :
  Direction:   1
  LATTYP: Found a face centered cubic cell.
 ALAT       =     4.1940024632

[...]

----------------------------------------- Iteration    1(   1)  ---------------------------------------

 Free energy of the ion-electron system (eV)
  -Hartree energ DENC   =         0.00000000
  -V(xc)+E(xc)   XCENC  =         0.00000000
  PAW double counting   =         0.00000000        0.00000000
  entropy T*S    EENTRO =         0.00000000
  eigenvalues    EBANDS =        -0.11076442
  free energy    TOTEN  =        -0.11076442 eV

  energy without entropy =       -0.11076442

[...]

 change of polarisation eV/A/(eV/A) component  1 :     0.222    -0.067     0.024
 dielectric tensor                  component  1 :     3.178    -0.654     0.234

 Linear response to external field (no local field effect), progress :
  Direction:   2
  LATTYP: Found a face centered cubic cell.
 ALAT       =     4.1940024632

[...]

The dynamic configuration has the point symmetry C_1h.

[...]

 Linear response to external field (no local field effect), progress :
  Direction:   3
  LATTYP: Found a face centered cubic cell.
 ALAT       =     4.1940024632

[...]

 HEAD OF MICROSCOPIC STATIC DIELECTRIC TENSOR (INDEPENDENT PARTICLE, excluding Hartree and local field effects)
           3.178491     0.000000    -0.000000
           0.000000     3.178380     0.000000
          -0.000000     0.000000     3.178380

 Linear response to external field, progress :
  Direction:   1
  LATTYP: Found a face centered cubic cell.
 ALAT       =     4.1940024632

[...]

 PIEZOELECTRIC TENSOR FIELD DIRECTION 1  (e Angst)
     0.00002 -0.00000  0.00000           ( -0.00000 -0.00000  0.00000)
    -0.00000  0.00003  0.00000           ( -0.00000  0.00000  0.00000)
     0.00000  0.00000  0.00003           (  0.00000  0.00000  0.00000)

 PIEZOELECTRIC TENSOR FIELD DIRECTION 1  (C/m^2)
     0.00002 -0.00000  0.00000
    -0.00000  0.00002  0.00000
     0.00000  0.00000  0.00002

      POSITION         DIRECTION 1           BORN EFFECTIVE CHARGE    (rigid.aug.   ionic)
      0.00000      0.00000      0.00000     1.96387  0.00000 -0.00000 ( -0.01609  2.00000)
     -2.09700      2.09700      2.09700    -1.96381 -0.00000  0.00000 ( -0.65470  6.00000)
    total drift (improves with k-points):   0.00006 -0.00000  0.00000

[...]

 Linear response to external field, progress :
  Direction:   3
  LATTYP: Found a face centered cubic cell.
 ALAT       =     4.1940024632

[...]

 change of polarisation eV/A/(eV/A) component  3 :    -0.000     0.002     0.215
 dielectric tensor                  component  3 :    -0.000     0.017     3.113

 PIEZOELECTRIC TENSOR FIELD DIRECTION 3  (e Angst)
    -0.00001  0.00000 -0.00003           (  0.00000  0.00000  0.00000)
     0.00000 -0.00001  0.00000           (  0.00000  0.00000  0.00000)
    -0.00003  0.00000  0.00001           (  0.00000  0.00000  0.00000)

 PIEZOELECTRIC TENSOR FIELD DIRECTION 3  (C/m^2)
    -0.00000  0.00000 -0.00003
     0.00000 -0.00001  0.00000
    -0.00003  0.00000  0.00001

      POSITION         DIRECTION 3           BORN EFFECTIVE CHARGE    (rigid.aug.   ionic)
      0.00000      0.00000      0.00000     0.00001  0.00000  1.96386 ( -0.01609  2.00000)
     -2.09700      2.09700      2.09700     0.00001  0.00000 -1.96387 ( -0.65470  6.00000)
    total drift (improves with k-points):   0.00002  0.00000 -0.00001

[...]

 MACROSCOPIC STATIC DIELECTRIC TENSOR (including local field effects in DFT)
           3.113322     0.000000    -0.000000
           0.000000     3.113122     0.000000
          -0.000000     0.000000     3.113122

 Linear response:
   Degrees of freedom DOF   =            4
 Linear response progress:
  Degree of freedom:   1/  4
  LATTYP: Found a face centered cubic cell.
 ALAT       =     4.1940024632

[...]

 INTERNAL STRAIN TENSOR  FOR ION    1  DIRECTION 1   (eV/Angst):
     0.00020  0.00000 -0.00000
    -0.00000 -0.00003 -0.00000
     0.00000 -0.00000 -0.00003

 POSITION                   FORCE-CONSTANT FOR ION    1 DIRECTION 1 (eV/Angst/Angst)
      0.00000      0.00000      0.00000        -5.880183     -0.000000     -0.000000
     -2.09700      2.09700      2.09700         5.880183      0.000000      0.000000
    total drift:                                0.000000      0.000000      0.000000

 BORN EFFECTIVE CHARGE FOR ION    1 DIRECTION 1 :   1.964   0.000  -0.000
                   rigid augmentation           :  -0.016   0.000  -0.000
                   ionic contribution           :   2.000   0.000  -0.000
                   Berry contribution           :  -0.020   0.000   0.000

 Linear response progress:
  Degree of freedom:   2/  4
  LATTYP: Found a face centered cubic cell.
 ALAT       =     4.1940024632

[...]

 Linear response progress:
  Degree of freedom:   4/  4
  LATTYP: Found a face centered cubic cell.
 ALAT       =     4.1940024632

[...]

The dynamic configuration has the point symmetry C_1h.

[...]

----------------------------------------- Iteration    8(  11)  ---------------------------------------

 Broyden mixing:
  rms(total) = 0.66106E-06    rms(broyden)= 0.66044E-06
  rms(prec ) = 0.18748E-05
  weight for this iteration     100.00

 eigenvalues of (default mixing * dielectric matrix)
  average eigenvalue GAMMA=   1.8688
  2.8826  2.6913  2.6913  2.4223  1.9005  0.9805  0.9805  1.0316  1.2387

 Free energy of the ion-electron system (eV)
  -Hartree energ DENC   =        -0.11567347
  -V(xc)+E(xc)   XCENC  =         0.00016557
  PAW double counting   =         0.00014741       -0.00014816
  entropy T*S    EENTRO =        -0.00000000
  eigenvalues    EBANDS =        -0.24450770
  free energy    TOTEN  =        -0.36001634 eV

  energy without entropy =       -0.36001634

[...]

 k-point 476 :       0.0000   -0.5000   -0.5000
  band No.  band energies     occupation
      1       0.0003      0.00000
      2       0.0002      0.00000
      3       0.0003      0.00000
      4       0.0003      0.00000
      5       0.0000      0.00000
      6       0.0000      0.00000
      7       0.0003      0.00000
      8       0.0001      0.00000

------------------------ aborting loop because EDIFF is reached ----------------------------------------

 INTERNAL STRAIN TENSOR  FOR ION    2  DIRECTION 2   (eV/Angst):
     0.00178 -0.00006  0.00000
    -0.00006 -0.00072  0.00000
     0.00000  0.00000  0.00095

 POSITION                   FORCE-CONSTANT FOR ION    2 DIRECTION 2 (eV/Angst/Angst)
      0.00000      0.00000      0.00000         0.000061      5.893277     -0.000000
     -2.09700      2.09700      2.09700        -0.000061     -5.893277      0.000000
    total drift:                                0.000000      0.000000      0.000000

 BORN EFFECTIVE CHARGE FOR ION    2 DIRECTION 2 :  -0.000  -1.964  -0.000
                   rigid augmentation           :   0.000  -0.655   0.000
                   ionic contribution           :   0.000   6.000   0.000
                   Berry contribution           :  -0.000  -7.309  -0.000

  LATTYP: Found a face centered cubic cell.
 ALAT       =     4.1940024632

  Lattice vectors:

 A1 = (  -2.0970012316,   0.0000000000,   2.0970012316)
 A2 = (   0.0000000000,   2.0970012316,   2.0970012316)
 A3 = (  -2.0970012316,   2.0970012316,   0.0000000000)

Analysis of symmetry for initial positions (statically):
 Subroutine PRICEL returns:
 Original cell was already a primitive cell.

[...]

The static configuration has the point symmetry C_4v.

Analysis of symmetry for dynamics (positions and initial velocities):
 Subroutine PRICEL returns:
 Original cell was already a primitive cell.

 Routine SETGRP: Setting up the symmetry group for a
 face centered cubic supercell.

 Subroutine GETGRP returns: Found  8 space group operations
 (whereof  8 operations were pure point group operations)
 out of a pool of 48 trial point group operations.

The dynamic configuration has the point symmetry C_4v.

 Subroutine INISYM returns: Found  8 space group operations
 (whereof  8 operations are pure point group operations),
 and found     1 'primitive' translations

 MACROSCOPIC STATIC DIELECTRIC TENSOR (including local field effects in DFT)
           3.113322     0.000000    -0.000000
           0.000000     3.113122     0.000000
          -0.000000     0.000000     3.113122

 PIEZOELECTRIC TENSOR  for field in x, y, z        (e  Angst)
          XX          YY          ZZ          XY          YZ          ZX
  x     0.00002     0.00003     0.00003    -0.00000     0.00000     0.00000
  y    -0.00004     0.00001    -0.00004     0.00001    -0.00000     0.00000
  z    -0.00001    -0.00001     0.00001     0.00000     0.00000    -0.00003

 PIEZOELECTRIC TENSOR  for field in x, y, z        (C/m^2)
          XX          YY          ZZ          XY          YZ          ZX
  x     0.00002     0.00002     0.00002     0.00000     0.00000    -0.00000
  y    -0.00000    -0.00000    -0.00000    -0.00001     0.00000    -0.00000
  z     0.00000     0.00000     0.00000    -0.00000    -0.00000    -0.00001

 BORN EFFECTIVE CHARGES (in e, cummulative output)
 ion    1
    1     1.96384     0.00000    -0.00000
    2    -0.00003     1.96386    -0.00000
    3    -0.00000    -0.00000     1.96387
 ion    2
    1    -1.96384    -0.00000     0.00000
    2     0.00003    -1.96386     0.00000
    3     0.00000     0.00000    -1.96387

 INTERNAL STRAIN TENSOR FOR ION    1 for displacements in x,y,z  (eV/Angst):
          X           Y           Z          XY          YZ          ZX
  x     0.00020    -0.00003    -0.00003     0.00000    -0.00000    -0.00000
  y     0.00000     0.00000    -0.00000    -0.00005     0.00000    -0.00000
  z     0.00000     0.00000     0.00000    -0.00000    -0.00000    -0.00005

 INTERNAL STRAIN TENSOR FOR ION    2 for displacements in x,y,z  (eV/Angst):
          X           Y           Z          XY          YZ          ZX
  x     0.00009    -0.00100    -0.00100    -0.00000    -0.00000     0.00000
  y     0.00000     0.00000     0.00000    -0.00006     0.00000    -0.00000
  z     0.00000     0.00000     0.00000    -0.00000    -0.00000    -0.00006

 SECOND DERIVATIVES (NOT SYMMETRIZED)
               1X          1Y          1Z          2X          2Y          2Z
  1X    -5.880183   -0.000000    0.000000    5.880183    0.000000   -0.000000
  1Y    -0.000000   -5.880182   -0.000000    0.000000    5.880182    0.000000
  1Z     0.000000   -0.000000   -5.880182   -0.000000    0.000000    5.880182
  2X     5.893285    0.000000   -0.000000   -5.893285   -0.000000    0.000000
  2Y     0.000000    5.893277    0.000000   -0.000000   -5.893277   -0.000000
  2Z    -0.000000    0.000000    5.893277    0.000000   -0.000000   -5.893277

 Eigenvectors and eigenvalues of the dynamical matrix

   1 f  =   12.212637 THz    76.734260 2PiTHz  407.369701 cm-1    50.507424 meV
             X         Y         Z           dx          dy          dz
      0.000000  0.000000  0.000000    -0.629635   -0.000000    0.000000
     -2.097001  2.097001  2.097001     0.776891    0.000000    0.000000

[...]

   3 f  =   12.212631 THz    76.734224 2PiTHz  407.369511 cm-1    50.507400 meV
             X         Y         Z           dx          dy          dz
      0.000000  0.000000  0.000000     0.000000   -0.629635   -0.000000
     -2.097001  2.097001  2.097001    -0.000000    0.776891   -0.000000

   4 f/i=    0.006645 THz     0.041750 2PiTHz    0.221644 cm-1     0.027480 meV
             X         Y         Z           dx          dy          dz
      0.000000  0.000000  0.000000     0.000000    0.120226   -0.767532
     -2.097001  2.097001  2.097001     0.000000    0.097438   -0.622050

[...]

   6 f/i=    0.006648 THz     0.041770 2PiTHz    0.221752 cm-1     0.027494 meV
             X         Y         Z           dx          dy          dz
      0.000000  0.000000  0.000000     0.776891   -0.000000   -0.000000
     -2.097001  2.097001  2.097001     0.629635   -0.000000   -0.000000

 MACROSCOPIC STATIC DIELECTRIC TENSOR IONIC CONTRIBUTION
           6.428039    -0.000109    -0.000005
          -0.000109     6.428171     0.000000
          -0.000005     0.000000     6.428212

 ELASTIC MODULI IONIC CONTR (kBar)
 Direction    XX          YY          ZZ          XY          YZ          ZX
 XX          -0.0000     -0.0000     -0.0000     -0.0000     -0.0000      0.0000
 YY          -0.0000     -0.0000     -0.0000     -0.0000     -0.0000      0.0000
 ZZ          -0.0000     -0.0000     -0.0000     -0.0000     -0.0000      0.0000
 XY          -0.0000     -0.0000     -0.0000     -0.0000      0.0000      0.0000
 YZ          -0.0000     -0.0000     -0.0000      0.0000     -0.0000     -0.0000
 ZX           0.0000      0.0000      0.0000      0.0000     -0.0000     -0.0000

 PIEZOELECTRIC TENSOR IONIC CONTR  for field in x, y, z        (C/m^2)
          XX          YY          ZZ          XY          YZ          ZX
  x     0.00002     0.00014     0.00014     0.00000     0.00000    -0.00000
  y    -0.00000    -0.00000    -0.00000     0.00000    -0.00000     0.00000
  z    -0.00000    -0.00000    -0.00000    -0.00000     0.00000     0.00000