 vasp.5.4.4.18Apr17-6-g9f103f2a35 (build Aug 24 2017 11:22:49) complex

 executed on             LinuxIFC date 2023.12.25  13:07:13

 INCAR:
 POTCAR:    PAW_PBE Ga_d 06Jul2010
 POTCAR:    PAW_PBE N 08Apr2002

 POTCAR:    PAW_PBE Ga_d 06Jul2010
   VRHFIN =Ga: s2p1

   TITEL  = PAW_PBE Ga_d 06Jul2010
   POMASS =   69.723; ZVAL   =   13.000    mass and valenz
   ENMAX  =  282.691; ENMIN  =  212.018 eV

 POTCAR:    PAW_PBE N 08Apr2002
   VRHFIN =N: s2p3

   TITEL  = PAW_PBE N 08Apr2002
   POMASS =   14.001; ZVAL   =    5.000    mass and valenz
   ENMAX  =  400.000; ENMIN  =  300.000 eV

  PAW_PBE Ga_d 06Jul2010                :
  PAW_PBE N 08Apr2002                   :

 POSCAR: Ga2 N2
  positions in direct lattice
 exchange correlation table for  LEXCH =        8
   RHO(1)=    0.500       N(1)  =     2000
   RHO(2)=  100.500       N(2)  =     4000

 ion  position               nearest neighbor table
   1  0.333  0.667  0.499-   4 1.95   4 1.95   4 1.95   3 1.96
   2  0.667  0.333  0.999-   3 1.95   3 1.95   3 1.95   4 1.96
   3  0.333  0.667  0.876-   2 1.95   2 1.95   2 1.95   1 1.96
   4  0.667  0.333  0.376-   1 1.95   1 1.95   1 1.95   2 1.96

  LATTYP: Found a hexagonal cell.
 ALAT       =     3.1889301586
 C/A-ratio  =     1.6282441424

  Lattice vectors:

 A1 = (   3.1889301586,   0.0000000000,   0.0000000000)
 A2 = (  -1.5944650793,   2.7616945282,   0.0000000000)
 A3 = (   0.0000000000,   0.0000000000,   5.1923568512)

Analysis of symmetry for initial positions (statically):
 Subroutine PRICEL returns:
 Original cell was already a primitive cell.

 Routine SETGRP: Setting up the symmetry group for a
 hexagonal supercell.

 Subroutine GETGRP returns: Found  2 space group operations
 (whereof  1 operations were pure point group operations)
 out of a pool of 24 trial point group operations.

The static configuration has the point symmetry C_1 .
 The point group associated with its full space group is C_1h.

Analysis of symmetry for dynamics (positions and initial velocities):
 Subroutine PRICEL returns:
 Original cell was already a primitive cell.

[...]

The dynamic configuration has the point symmetry C_1 .
 The point group associated with its full space group is C_1h.

 Subroutine INISYM returns: Found  2 space group operations
 (whereof  1 operations are pure point group operations),
 and found     1 'primitive' translations

 KPOINTS: pymatgen with grid density = 3000 / numb

Automatic generation of k-mesh.
Space group operators:
 irot       det(A)        alpha          n_x          n_y          n_z        tau_x        tau_y        tau_z
    1     1.000000     0.000001     1.000000     0.000000     0.000000     0.000000     0.000000     0.000000
    2    -1.000000   180.000000     1.000000    -0.000000     0.000000     0.000000     0.000000     0.000000

 Subroutine IBZKPT returns following result:

 Found    172 irreducible k-points:

 Following reciprocal coordinates:
            Coordinates               Weight
  0.000000  0.000000  0.000000      1.000000
  0.100000 -0.000000  0.000000      4.000000
  0.200000 -0.000000  0.000000      4.000000
  0.300000 -0.000000  0.000000      4.000000
  0.400000 -0.000000  0.000000      4.000000
  0.500000 -0.000000  0.000000      2.000000
  0.000000  0.100000  0.000000      2.000000
  0.100000  0.100000  0.000000      4.000000
  0.200000  0.100000  0.000000      4.000000
  0.300000  0.100000  0.000000      4.000000
  0.400000  0.100000  0.000000      4.000000
  0.500000  0.100000  0.000000      4.000000
 -0.400000  0.100000  0.000000      4.000000
 -0.300000  0.100000  0.000000      4.000000
 -0.200000  0.100000  0.000000      2.000000
  0.000000  0.200000  0.000000      2.000000
  0.100000  0.200000  0.000000      4.000000
  0.200000  0.200000  0.000000      4.000000
  0.300000  0.200000  0.000000      4.000000
  0.400000  0.200000  0.000000      4.000000
  0.500000  0.200000  0.000000      4.000000
 -0.400000  0.200000  0.000000      2.000000
  0.000000  0.300000  0.000000      2.000000
  0.100000  0.300000  0.000000      4.000000
  0.200000  0.300000  0.000000      4.000000
  0.300000  0.300000  0.000000      4.000000
  0.400000  0.300000  0.000000      2.000000
  0.000000  0.400000  0.000000      2.000000
  0.100000  0.400000  0.000000      4.000000
  0.200000  0.400000  0.000000      2.000000
  0.000000  0.500000  0.000000      1.000000
  0.000000  0.000000  0.166667      2.000000
  0.100000 -0.000000  0.166667      4.000000
  0.200000 -0.000000  0.166667      4.000000
  0.300000 -0.000000  0.166667      4.000000
  0.400000 -0.000000  0.166667      4.000000
  0.500000 -0.000000  0.166667      4.000000
 -0.400000  0.000000  0.166667      4.000000
 -0.300000  0.000000  0.166667      4.000000
 -0.200000  0.000000  0.166667      4.000000
 -0.100000  0.000000  0.166667      4.000000
  0.000000  0.100000  0.166667      2.000000
  0.100000  0.100000  0.166667      4.000000
  0.200000  0.100000  0.166667      4.000000
  0.300000  0.100000  0.166667      4.000000
  0.400000  0.100000  0.166667      4.000000
  0.500000  0.100000  0.166667      4.000000
 -0.400000  0.100000  0.166667      4.000000
 -0.300000  0.100000  0.166667      4.000000
 -0.200000  0.100000  0.166667      4.000000
  0.000000  0.200000  0.166667      2.000000
  0.100000  0.200000  0.166667      4.000000
  0.200000  0.200000  0.166667      4.000000
  0.300000  0.200000  0.166667      4.000000
  0.400000  0.200000  0.166667      4.000000
  0.500000  0.200000  0.166667      4.000000
 -0.400000  0.200000  0.166667      4.000000
 -0.300000  0.200000  0.166667      4.000000
  0.000000  0.300000  0.166667      2.000000
  0.100000  0.300000  0.166667      4.000000
[...]
  0.100000  0.200000  0.500000      4.000000
  0.200000  0.200000  0.500000      4.000000
  0.300000  0.200000  0.500000      4.000000
  0.400000  0.200000  0.500000      4.000000
  0.500000  0.200000  0.500000      4.000000
 -0.400000  0.200000  0.500000      2.000000
  0.000000  0.300000  0.500000      2.000000
  0.100000  0.300000  0.500000      4.000000
  0.200000  0.300000  0.500000      4.000000
  0.300000  0.300000  0.500000      4.000000
  0.400000  0.300000  0.500000      2.000000
  0.000000  0.400000  0.500000      2.000000
  0.100000  0.400000  0.500000      4.000000
  0.200000  0.400000  0.500000      2.000000
  0.000000  0.500000  0.500000      1.000000

 Following cartesian coordinates:
            Coordinates               Weight
  0.000000  0.000000  0.000000      1.000000
  0.031358  0.018105  0.000000      4.000000
  0.062717  0.036210  0.000000      4.000000
  0.094075  0.054314  0.000000      4.000000
  0.125434  0.072419  0.000000      4.000000
  0.156792  0.090524  0.000000      2.000000
  0.000000  0.036210  0.000000      2.000000
  0.031358  0.054314  0.000000      4.000000
  0.062717  0.072419  0.000000      4.000000
  0.094075  0.090524  0.000000      4.000000
  0.125434  0.108629  0.000000      4.000000
  0.156792  0.126734  0.000000      4.000000
 -0.125434 -0.036210  0.000000      4.000000
 -0.094075 -0.018105  0.000000      4.000000
 -0.062717 -0.000000  0.000000      2.000000
  0.000000  0.072419  0.000000      2.000000
  0.031358  0.090524  0.000000      4.000000
  0.062717  0.108629  0.000000      4.000000
  0.094075  0.126734  0.000000      4.000000
  0.125434  0.144839  0.000000      4.000000
  0.156792  0.162943  0.000000      4.000000
 -0.125434 -0.000000  0.000000      2.000000
  0.000000  0.108629  0.000000      2.000000
  0.031358  0.126734  0.000000      4.000000
  0.062717  0.144839  0.000000      4.000000
  0.094075  0.162943  0.000000      4.000000
  0.125434  0.181048  0.000000      2.000000
  0.000000  0.144839  0.000000      2.000000
  0.031358  0.162943  0.000000      4.000000
  0.062717  0.181048  0.000000      2.000000
  0.000000  0.181048  0.000000      1.000000
  0.000000  0.000000  0.032098      2.000000
  0.031358  0.018105  0.032098      4.000000
  0.062717  0.036210  0.032098      4.000000
  0.094075  0.054314  0.032098      4.000000
  0.125434  0.072419  0.032098      4.000000
  0.156792  0.090524  0.032098      4.000000
 -0.125434 -0.072419  0.032098      4.000000
 -0.094075 -0.054314  0.032098      4.000000
 -0.062717 -0.036210  0.032098      4.000000
 -0.031358 -0.018105  0.032098      4.000000
  0.000000  0.036210  0.032098      2.000000
  0.031358  0.054314  0.032098      4.000000
  0.062717  0.072419  0.032098      4.000000
  0.094075  0.090524  0.032098      4.000000
  0.125434  0.108629  0.032098      4.000000
  0.156792  0.126734  0.032098      4.000000
 -0.125434 -0.036210  0.032098      4.000000
 -0.094075 -0.018105  0.032098      4.000000
 -0.062717 -0.000000  0.032098      4.000000
  0.000000  0.072419  0.032098      2.000000
  0.031358  0.090524  0.032098      4.000000
  0.062717  0.108629  0.032098      4.000000
  0.094075  0.126734  0.032098      4.000000
  0.125434  0.144839  0.032098      4.000000
  0.156792  0.162943  0.032098      4.000000
 -0.125434 -0.000000  0.032098      4.000000
 -0.094075  0.018105  0.032098      4.000000
  0.000000  0.108629  0.032098      2.000000
  0.031358  0.126734  0.032098      4.000000
[...]
  0.031358  0.090524  0.096295      4.000000
  0.062717  0.108629  0.096295      4.000000
  0.094075  0.126734  0.096295      4.000000
  0.125434  0.144839  0.096295      4.000000
  0.156792  0.162943  0.096295      4.000000
 -0.125434 -0.000000  0.096295      2.000000
  0.000000  0.108629  0.096295      2.000000
  0.031358  0.126734  0.096295      4.000000
  0.062717  0.144839  0.096295      4.000000
  0.094075  0.162943  0.096295      4.000000
  0.125434  0.181048  0.096295      2.000000
  0.000000  0.144839  0.096295      2.000000
  0.031358  0.162943  0.096295      4.000000
  0.062717  0.181048  0.096295      2.000000
  0.000000  0.181048  0.096295      1.000000

 Subroutine IBZKPT_HF returns following result:

 Found    600 k-points in 1st BZ
 the following    600 k-points will be used (e.g. in the exchange kernel)
 Following reciprocal coordinates:   # in IRBZ
  0.000000  0.000000  0.000000    0.00166667   1 t-inv F
  0.100000 -0.000000  0.000000    0.00166667   2 t-inv F
  0.200000 -0.000000  0.000000    0.00166667   3 t-inv F
  0.300000 -0.000000  0.000000    0.00166667   4 t-inv F
  0.400000 -0.000000  0.000000    0.00166667   5 t-inv F
  0.500000 -0.000000  0.000000    0.00166667   6 t-inv F
  0.000000  0.100000  0.000000    0.00166667   7 t-inv F
  0.100000  0.100000  0.000000    0.00166667   8 t-inv F
  0.200000  0.100000  0.000000    0.00166667   9 t-inv F
  0.300000  0.100000  0.000000    0.00166667  10 t-inv F
  0.400000  0.100000  0.000000    0.00166667  11 t-inv F
  0.500000  0.100000  0.000000    0.00166667  12 t-inv F
 -0.400000  0.100000  0.000000    0.00166667  13 t-inv F
 -0.300000  0.100000  0.000000    0.00166667  14 t-inv F
 -0.200000  0.100000  0.000000    0.00166667  15 t-inv F
  0.000000  0.200000  0.000000    0.00166667  16 t-inv F
  0.100000  0.200000  0.000000    0.00166667  17 t-inv F
  0.200000  0.200000  0.000000    0.00166667  18 t-inv F
  0.300000  0.200000  0.000000    0.00166667  19 t-inv F
  0.400000  0.200000  0.000000    0.00166667  20 t-inv F
[...]

[...]

----------------------------------------- Iteration    1(   1)  ---------------------------------------

 Free energy of the ion-electron system (eV)
  -Hartree energ DENC   =         0.00000000
  -V(xc)+E(xc)   XCENC  =         0.00000000
  PAW double counting   =         0.00000000        0.00000000
  entropy T*S    EENTRO =         0.00000000
  eigenvalues    EBANDS =        -0.09271384
  free energy    TOTEN  =        -0.09271384 eV

  energy without entropy =       -0.09271384

[...]

 change of polarisation eV/A/(eV/A) component  1 :     1.229    -0.201     0.000
 dielectric tensor                  component  1 :     5.865    -0.796     0.000

 Linear response to external field (no local field effect), progress :
  Direction:   2
  LATTYP: Found a hexagonal cell.
 ALAT       =     3.1889301586
 C/A-ratio  =     1.6282441424

[...]

 Linear response to external field (no local field effect), progress :
  Direction:   3
  LATTYP: Found a hexagonal cell.
 ALAT       =     3.1889301586
 C/A-ratio  =     1.6282441424

[...]

 HEAD OF MICROSCOPIC STATIC DIELECTRIC TENSOR (INDEPENDENT PARTICLE, excluding Hartree and local field effects)
           5.864876     0.000000     0.000000
           0.000000     5.856757     0.000014
          -0.000000    -0.000014     6.023723

 Linear response to external field, progress :
  Direction:   1
  LATTYP: Found a hexagonal cell.
 ALAT       =     3.1889301586
 C/A-ratio  =     1.6282441424

[...]

 PIEZOELECTRIC TENSOR FIELD DIRECTION 1  (e Angst)
     0.00028  0.00001  1.59446           ( -0.00000 -0.00000  0.11625)
     0.00001 -0.00049  0.00006           ( -0.00000  0.00000  0.00003)
     1.59445  0.00005  0.00028           (  0.11625  0.00003 -0.00000)

 PIEZOELECTRIC TENSOR FIELD DIRECTION 1  (C/m^2)
     0.00010  0.00000  0.55865
     0.00000 -0.00017  0.00002
     0.55865  0.00002  0.00010

      POSITION         DIRECTION 1           BORN EFFECTIVE CHARGE    (rigid.aug.   ionic)
      0.00000      1.84113      2.59142     2.61557 -0.00001  0.00006 ( -8.48223 13.00000)
      1.59447      0.92056      5.18760     2.61557 -0.00000 -0.00006 ( -8.48223 13.00000)
      0.00000      1.84113      4.54807    -2.61573 -0.00024  0.00003 ( -0.21157  5.00000)
      1.59447      0.92056      1.95189    -2.61577 -0.00020 -0.00003 ( -0.21157  5.00000)
    total drift (improves with k-points):  -0.00036 -0.00045 -0.00000

[...]

 Linear response to external field, progress :
  Direction:   3
  LATTYP: Found a hexagonal cell.
 ALAT       =     3.1889301586
 C/A-ratio  =     1.6282441424

[...]

 change of polarisation eV/A/(eV/A) component  3 :    -0.000     0.000     1.235
 dielectric tensor                  component  3 :    -0.000     0.000     5.888

 PIEZOELECTRIC TENSOR FIELD DIRECTION 3  (e Angst)
     1.45718  0.00000  0.00000           (  0.11395  0.00000  0.00000)
     0.00000  1.45718  0.00028           (  0.00000  0.11395  0.00000)
     0.00000  0.00028 -2.95414           (  0.00000  0.00000 -0.23673)

 PIEZOELECTRIC TENSOR FIELD DIRECTION 3  (C/m^2)
     0.51055  0.00000  0.00000
     0.00000  0.51055  0.00010
     0.00000  0.00010 -1.03504

      POSITION         DIRECTION 3           BORN EFFECTIVE CHARGE    (rigid.aug.   ionic)
      0.00000      1.84113      2.59142     0.00000  0.00001  2.75511 ( -8.48223 13.00000)
      1.59447      0.92056      5.18760     0.00000  0.00001  2.75511 ( -8.48223 13.00000)
      0.00000      1.84113      4.54807    -0.00000 -0.00002 -2.75496 ( -0.21157  5.00000)
      1.59447      0.92056      1.95189    -0.00000 -0.00002 -2.75496 ( -0.21157  5.00000)
    total drift (improves with k-points):   0.00000 -0.00003  0.00030

[...]

 MACROSCOPIC STATIC DIELECTRIC TENSOR (including local field effects in DFT)
           5.713939     0.000000     0.000000
           0.000000     5.705799     0.000011
          -0.000000    -0.000011     5.888001

 Linear response:
   Degrees of freedom DOF   =           12
 Linear response progress:
  Degree of freedom:   1/ 12
  LATTYP: Found a hexagonal cell.
 ALAT       =     3.1889301586
 C/A-ratio  =     1.6282441424

[...]

 INTERNAL STRAIN TENSOR  FOR ION    1  DIRECTION 1   (eV/Angst):
    -0.00006 -8.36401 -5.49714
    -7.28821 -0.00070  0.00074
    -5.11266  0.00073  0.00059

 POSITION                   FORCE-CONSTANT FOR ION    1 DIRECTION 1 (eV/Angst/Angst)
      0.00000      1.84113      2.59142       -13.069405      0.000857     -0.000085
      1.59447      0.92056      5.18760         0.413719     -0.000345      0.000033
      0.00000      1.84113      4.54807         0.958652     -0.000386      0.000008
      1.59447      0.92056      1.95189        11.697034     -0.000126      0.000043
    total drift:                                0.000000      0.000000     -0.000000

 BORN EFFECTIVE CHARGE FOR ION    1 DIRECTION 1 :   2.615  -0.000   0.000
                   rigid augmentation           :  -8.482   0.000   0.000
                   ionic contribution           :  13.000   0.000   0.000
                   Berry contribution           :  -1.902  -0.000   0.000

 Linear response progress:
  Degree of freedom:   2/ 12
  LATTYP: Found a hexagonal cell.
 ALAT       =     3.1889301586
 C/A-ratio  =     1.6282441424

[...]

The dynamic configuration has the point symmetry C_1 .

[...]

 Linear response progress:
  Degree of freedom:  12/ 12
  LATTYP: Found a hexagonal cell.
 ALAT       =     3.1889301586
 C/A-ratio  =     1.6282441424

[...]

----------------------------------------- Iteration   15(  15)  ---------------------------------------

 Broyden mixing:
  rms(total) = 0.95625E-06    rms(broyden)= 0.95597E-06
  rms(prec ) = 0.14983E-05
  weight for this iteration     100.00

 eigenvalues of (default mixing * dielectric matrix)
  average eigenvalue GAMMA=   1.6067
  3.1292  2.7254  2.5828  2.2946  1.8462  1.5974  1.3186  1.0757  0.9940  0.9940
  0.8664  0.8664  0.5966

 Free energy of the ion-electron system (eV)
  -Hartree energ DENC   =        -0.08433206
  -V(xc)+E(xc)   XCENC  =         0.00037002
  PAW double counting   =         0.01091473       -0.01094564
  entropy T*S    EENTRO =         0.00000000
  eigenvalues    EBANDS =        -0.16452296
  free energy    TOTEN  =        -0.24851591 eV

  energy without entropy =       -0.24851591

[...]

 k-point 172 :       0.0000    0.5000    0.5000
  band No.  band energies     occupation
      1       0.0978      0.00000
      2      -0.0460      0.00000
      3       0.2992      0.00000
      4      -0.1793      0.00000
      5       0.5550      0.00000
      6      -0.6015      0.00000
      7       0.1308      0.00000
      8      -0.0039      0.00000
      9       0.6745      0.00000
     10      -0.5814      0.00000
     11      -0.2935      0.00000
     12       0.3803      0.00000
     13      -1.4589      0.00000
     14       0.6111      0.00000
     15      -2.1244      0.00000
     16       0.5929      0.00000
     17       0.2358      0.00000
     18       1.8444      0.00000
     19      -0.0556      0.00000
     20       0.9879      0.00000
     21      -4.6170      0.00000
     22       2.4830      0.00000
     23      -4.0892      0.00000
     24       3.3132      0.00000

------------------------ aborting loop because EDIFF is reached ----------------------------------------

 INTERNAL STRAIN TENSOR  FOR ION    4  DIRECTION 3   (eV/Angst):
     5.31071  0.00000  0.00000
     0.00000  5.30745 -0.04337
     0.00000  0.04318-10.08711

 POSITION                   FORCE-CONSTANT FOR ION    4 DIRECTION 3 (eV/Angst/Angst)
      0.00000      1.84113      2.59142        -0.000000      0.000132      4.687388
      1.59447      0.92056      5.18760        -0.000000      0.000013      6.928800
      0.00000      1.84113      4.54807        -0.000000     -0.000290      6.005530
      1.59447      0.92056      1.95189         0.000000      0.000144    -17.621719
    total drift:                                0.000000      0.000000      0.000000

 BORN EFFECTIVE CHARGE FOR ION    4 DIRECTION 3 :   0.000  -0.000  -2.755
                   rigid augmentation           :   0.000   0.000  -0.212
                   ionic contribution           :   0.000   0.000   5.000
                   Berry contribution           :   0.000  -0.000  -7.543

  LATTYP: Found a hexagonal cell.
 ALAT       =     3.1889301586
 C/A-ratio  =     1.6282441424

  Lattice vectors:

 A1 = (   3.1889301586,   0.0000000000,   0.0000000000)
 A2 = (  -1.5944650793,   2.7616945282,   0.0000000000)
 A3 = (   0.0000000000,   0.0000000000,   5.1923568512)

Analysis of symmetry for initial positions (statically):
 Subroutine PRICEL returns:
 Original cell was already a primitive cell.

[...]

The static configuration has the point symmetry C_1 .
 The point group associated with its full space group is C_1h.

Analysis of symmetry for dynamics (positions and initial velocities):
 Subroutine PRICEL returns:
 Original cell was already a primitive cell.

 Routine SETGRP: Setting up the symmetry group for a
 hexagonal supercell.

 Subroutine GETGRP returns: Found  2 space group operations
 (whereof  1 operations were pure point group operations)
 out of a pool of 24 trial point group operations.

The dynamic configuration has the point symmetry C_1 .
 The point group associated with its full space group is C_1h.

 Subroutine INISYM returns: Found  2 space group operations
 (whereof  1 operations are pure point group operations),
 and found     1 'primitive' translations

 MACROSCOPIC STATIC DIELECTRIC TENSOR (including local field effects in DFT)
           5.713939     0.000000     0.000000
           0.000000     5.705799     0.000011
          -0.000000    -0.000011     5.888001

 PIEZOELECTRIC TENSOR  for field in x, y, z        (e  Angst)
          XX          YY          ZZ          XY          YZ          ZX
  x     0.00028    -0.00049     0.00028     0.00001     0.00005     1.59446
  y    -0.00003    -0.00000    -0.00011     0.00000     1.59393     0.00000
  z     1.45718     1.45718    -2.95414     0.00000     0.00028     0.00000

 PIEZOELECTRIC TENSOR  for field in x, y, z        (C/m^2)
          XX          YY          ZZ          XY          YZ          ZX
  x     0.00000     0.00000     0.00000     0.00000     0.00000     0.55865
  y    -0.00001    -0.00000    -0.00004    -0.00000     0.55846     0.00000
  z     0.51055     0.51055    -1.03504     0.00000     0.00010     0.00000

 BORN EFFECTIVE CHARGES (in e, cummulative output)
 ion    1
    1     2.61566     0.00010     0.00006
    2    -0.00000     2.61567    -0.00004
    3    -0.00000     0.00001     2.75504
 ion    2
    1     2.61566     0.00011    -0.00006
    2    -0.00000     2.61568     0.00003
    3     0.00000     0.00001     2.75503
 ion    3
    1    -2.61564    -0.00013     0.00003
    2     0.00000    -2.61570    -0.00000
    3    -0.00000    -0.00001    -2.75504
 ion    4
    1    -2.61568    -0.00009    -0.00003
    2     0.00000    -2.61565     0.00002
    3    -0.00000    -0.00001    -2.75503

 INTERNAL STRAIN TENSOR FOR ION    1 for displacements in x,y,z  (eV/Angst):
          X           Y           Z          XY          YZ          ZX
  x    -0.00000     0.00000     0.00000    -7.28821    -0.00000    -5.49714
  y    -7.82177     7.71191     0.11222     0.00000    -4.98852    -0.00000
  z    -5.23621    -5.41177    10.06204    -0.00000     0.15067    -0.00000

[...]

 INTERNAL STRAIN TENSOR FOR ION    4 for displacements in x,y,z  (eV/Angst):
          X           Y           Z          XY          YZ          ZX
  x     0.00000    -0.00000    -0.00000     9.72799     0.00000     5.37652
  y     9.54284    -9.54408    -0.00104    -0.00000     5.60409     0.00000
  z     5.31071     5.30745   -10.08711     0.00000     0.04318    -0.00000

 SECOND DERIVATIVES (NOT SYMMETRIZED)
               1X          1Y          1Z          2X          2Y          2Z          3X          3Y          3Z          4X          4Y          4Z
  1X   -13.069405   -0.000000    0.000000    0.413719    0.000000    0.000000    0.958652    0.000000    0.000000   11.697034    0.000000   -0.000000
  1Y    -0.000000  -13.068967    0.000099    0.000000    0.413361    0.000004    0.000000    0.957992    0.000075    0.000000   11.697614   -0.000178
  1Z    -0.000000   -0.000962  -19.735075    0.000000    0.000723    8.154858    0.000000    0.001337    6.911688   -0.000000   -0.001097    4.668530
  2X     0.413489    0.000000    0.000000  -13.069356   -0.000000    0.000000   11.697751    0.000000   -0.000000    0.958117    0.000000    0.000000
  2Y     0.000000    0.413385    0.000010   -0.000000  -13.068852    0.000150    0.000000   11.697115   -0.000182    0.000000    0.958352    0.000022
  2Z     0.000000    0.000709    8.154934   -0.000000   -0.000921  -19.735036   -0.000000   -0.001115    4.668154    0.000000    0.001327    6.911948
  3X     0.975351    0.000000    0.000000   11.713360    0.000000    0.000000  -13.355018   -0.000000    0.000000    0.666307    0.000000    0.000000
  3Y     0.000000    0.975241    0.000025    0.000000   11.713551   -0.000050   -0.000000  -13.354562   -0.000171    0.000000    0.665770    0.000195
  3Z     0.000000    0.000014    6.928816    0.000000    0.000119    4.687363    0.000000    0.000163  -17.621397   -0.000000   -0.000296    6.005218
  4X    11.713560    0.000000    0.000000    0.975156    0.000000   -0.000000    0.665709    0.000000    0.000000  -13.354424   -0.000000    0.000000
  4Y     0.000000   11.713342    0.000091    0.000000    0.975317   -0.000146    0.000000    0.666295    0.000082   -0.000000  -13.354954   -0.000027
  4Z     0.000000    0.000132    4.687388    0.000000    0.000013    6.928800   -0.000000   -0.000290    6.005530    0.000000    0.000144  -17.621719

 Eigenvectors and eigenvalues of the dynamical matrix

   1 f  =   20.332346 THz   127.751898 2PiTHz  678.214041 cm-1    84.087854 meV
             X         Y         Z           dx          dy          dz
      0.000000  1.841130  2.591421    -0.000000    0.000004    0.039230
      1.594465  0.920565  5.187600    -0.000000   -0.000001   -0.039241
      0.000000  1.841130  4.548070    -0.000000    0.000002   -0.706006
      1.594465  0.920565  1.951892     0.000000   -0.000012    0.706029

[...]

   9 f  =    4.045138 THz    25.416350 2PiTHz  134.931265 cm-1    16.729351 meV
             X         Y         Z           dx          dy          dz
      0.000000  1.841130  2.591421     0.000000    0.663655   -0.000049
      1.594465  0.920565  5.187600    -0.000000   -0.663626    0.000052
      0.000000  1.841130  4.548070    -0.000000   -0.244091   -0.000001
      1.594465  0.920565  1.951892     0.000000    0.244095    0.000004

  10 f/i=    0.007901 THz     0.049641 2PiTHz    0.263535 cm-1     0.032674 meV
             X         Y         Z           dx          dy          dz
      0.000000  1.841130  2.591421     0.645422    0.000000    0.000000
      1.594465  0.920565  5.187600     0.645418    0.000000    0.000000
      0.000000  1.841130  4.548070     0.288848    0.000000    0.000000
      1.594465  0.920565  1.951892     0.288849    0.000000    0.000000

[...]

  12 f/i=    0.009032 THz     0.056748 2PiTHz    0.301267 cm-1     0.037352 meV
             X         Y         Z           dx          dy          dz
      0.000000  1.841130  2.591421    -0.000000    0.001536    0.645446
      1.594465  0.920565  5.187600    -0.000000    0.001539    0.645445
      0.000000  1.841130  4.548070    -0.000000    0.000690    0.288786
      1.594465  0.920565  1.951892    -0.000000    0.000688    0.288786

 MACROSCOPIC STATIC DIELECTRIC TENSOR IONIC CONTRIBUTION
           4.272872     0.000176     0.000002
           0.000176     4.272954    -0.000008
           0.000002    -0.000008     5.179348

 ELASTIC MODULI IONIC CONTR (kBar)
 Direction    XX          YY          ZZ          XY          YZ          ZX
 XX        -628.6465    287.1634    323.5562     -0.0000      1.0109     -0.0000
 YY         287.1634   -628.6403    323.5409     -0.0000      0.8411      0.0000
 ZZ         323.5562    323.5409   -613.1175      0.0000     -1.6043      0.0000
 XY          -0.0000     -0.0000      0.0000   -473.3736      0.0000      0.5389
 YZ           1.0109      0.8411     -1.6043      0.0000   -155.1580     -0.0000
 ZX          -0.0000      0.0000      0.0000      0.5389     -0.0000   -163.6572

 PIEZOELECTRIC TENSOR IONIC CONTR  for field in x, y, z        (C/m^2)
          XX          YY          ZZ          XY          YZ          ZX
  x     0.00001    -0.00001     0.00000     0.00009    -0.00003    -0.78686
  y    -0.00405    -0.00383     0.00821     0.00000    -0.76612     0.00000
  z    -0.88486    -0.88485     1.67678    -0.00000     0.00893    -0.00000