 vasp.5.4.4.18Apr17-6-g9f103f2a35 (build Aug 24 2017 11:22:49) complex

 executed on             LinuxIFC date 2023.12.25  13:07:25

 INCAR:
 POTCAR:    PAW_PBE Ba_sv 06Sep2000
 POTCAR:    PAW_PBE S 06Sep2000

 POTCAR:    PAW_PBE Ba_sv 06Sep2000
   VRHFIN =Ba: 5s5p6s

   TITEL  = PAW_PBE Ba_sv 06Sep2000
   POMASS =  137.327; ZVAL   =   10.000    mass and valenz
   ENMAX  =  187.181; ENMIN  =  140.386 eV

 POTCAR:    PAW_PBE S 06Sep2000
   VRHFIN =S : s2p4

   TITEL  = PAW_PBE S 06Sep2000
   POMASS =   32.066; ZVAL   =    6.000    mass and valenz
   ENMAX  =  258.689; ENMIN  =  194.016 eV

  PAW_PBE Ba_sv 06Sep2000               :
  PAW_PBE S 06Sep2000                   :

 POSCAR: Ba1 S1
  positions in direct lattice
 exchange correlation table for  LEXCH =        8
   RHO(1)=    0.500       N(1)  =     2000
   RHO(2)=  100.500       N(2)  =     4000

 ion  position               nearest neighbor table
   1  0.000  0.000  0.000-   2 3.23   2 3.23   2 3.23   2 3.23   2 3.23   2 3.23
   2  0.500  0.500  0.500-   1 3.23   1 3.23   1 3.23   1 3.23   1 3.23   1 3.23

  LATTYP: Found a face centered cubic cell.
 ALAT       =     6.4513507405

  Lattice vectors:

 A1 = (  -3.2256753702,   0.0000000000,   3.2256753702)
 A2 = (   0.0000000000,   3.2256753702,   3.2256753702)
 A3 = (  -3.2256753702,   3.2256753702,   0.0000000000)

Analysis of symmetry for initial positions (statically):
 Subroutine PRICEL returns:
 Original cell was already a primitive cell.

 Routine SETGRP: Setting up the symmetry group for a
 face centered cubic supercell.

 Subroutine GETGRP returns: Found  8 space group operations
 (whereof  8 operations were pure point group operations)
 out of a pool of 48 trial point group operations.

The static configuration has the point symmetry C_4v.

Analysis of symmetry for dynamics (positions and initial velocities):
 Subroutine PRICEL returns:
 Original cell was already a primitive cell.

[...]

The dynamic configuration has the point symmetry C_4v.

 Subroutine INISYM returns: Found  8 space group operations
 (whereof  8 operations are pure point group operations),
 and found     1 'primitive' translations

 KPOINTS: pymatgen with grid density = 3000 / numb

Automatic generation of k-mesh.
Space group operators:
 irot       det(A)        alpha          n_x          n_y          n_z        tau_x        tau_y        tau_z
    1     1.000000     0.000000     1.000000     0.000000     0.000000     0.000000     0.000000     0.000000
    2     1.000000    90.000000    -1.000000     0.000000    -0.000000     0.000000     0.000000     0.000000
    3    -1.000000   180.000000    -0.000000    -0.000000     1.000000     0.000000     0.000000     0.000000
    4    -1.000000   180.000000     0.000000     0.707107     0.707107     0.000000     0.000000     0.000000
    5    -1.000000   180.000000     0.000000    -1.000000    -0.000000     0.000000     0.000000     0.000000
    6     1.000000    90.000000     1.000000     0.000000     0.000000     0.000000     0.000000     0.000000
    7     1.000000   180.000000     1.000000     0.000000     0.000000     0.000000     0.000000     0.000000
    8    -1.000000   180.000000    -0.000000    -0.707107     0.707107     0.000000     0.000000     0.000000

 Subroutine IBZKPT returns following result:

 Found    163 irreducible k-points:

 Following reciprocal coordinates:
            Coordinates               Weight
  0.000000  0.000000  0.000000      1.000000
  0.083333  0.000000  0.000000      8.000000
  0.166667  0.000000 -0.000000      8.000000
  0.250000 -0.000000 -0.000000      8.000000
  0.333333 -0.000000  0.000000      8.000000
  0.416667 -0.000000 -0.000000      8.000000
  0.500000 -0.000000 -0.000000      4.000000
  0.083333  0.083333  0.000000      4.000000
  0.166667  0.083333  0.000000     16.000000
  0.250000  0.083333 -0.000000     16.000000
  0.333333  0.083333 -0.000000     16.000000
  0.416667  0.083333 -0.000000     16.000000
  0.500000  0.083333 -0.000000     16.000000
 -0.416667  0.083333  0.000000     16.000000
 -0.333333  0.083333  0.000000     16.000000
 -0.250000  0.083333  0.000000     16.000000
 -0.166667  0.083333 -0.000000     16.000000
 -0.083333  0.083333 -0.000000      8.000000
  0.166667  0.166667  0.000000      4.000000
  0.250000  0.166667  0.000000     16.000000
  0.333333  0.166667  0.000000     16.000000
  0.416667  0.166667 -0.000000     16.000000
  0.500000  0.166667 -0.000000     16.000000
 -0.416667  0.166667 -0.000000     16.000000
 -0.333333  0.166667  0.000000     16.000000
 -0.250000  0.166667  0.000000     16.000000
 -0.166667  0.166667 -0.000000      8.000000
  0.250000  0.250000  0.000000      4.000000
  0.333333  0.250000  0.000000     16.000000
  0.416667  0.250000 -0.000000     16.000000
  0.500000  0.250000  0.000000     16.000000
 -0.416667  0.250000  0.000000     16.000000
 -0.333333  0.250000  0.000000     16.000000
 -0.250000  0.250000  0.000000      8.000000
  0.333333  0.333333  0.000000      4.000000
  0.416667  0.333333 -0.000000     16.000000
  0.500000  0.333333  0.000000     16.000000
 -0.416667  0.333333 -0.000000     16.000000
 -0.333333  0.333333 -0.000000      8.000000
  0.416667  0.416667  0.000000      4.000000
  0.500000  0.416667  0.000000     16.000000
 -0.416667  0.416667  0.000000      8.000000
  0.500000  0.500000  0.000000      2.000000
  0.083333  0.000000  0.083333      2.000000
  0.166667  0.000000  0.083333      8.000000
  0.250000 -0.000000  0.083333      8.000000
  0.333333 -0.000000  0.083333      8.000000
  0.416667 -0.000000  0.083333      8.000000
  0.500000  0.000000  0.083333      8.000000
 -0.416667 -0.000000  0.083333      8.000000
 -0.333333  0.000000  0.083333      8.000000
 -0.250000  0.000000  0.083333      8.000000
 -0.166667  0.000000  0.083333      8.000000
 -0.083333 -0.000000  0.083333      4.000000
  0.250000  0.166667  0.083333      8.000000
  0.333333  0.166667  0.083333     16.000000
  0.416667  0.166667  0.083333     16.000000
  0.500000  0.166667  0.083333     16.000000
 -0.416667  0.166667  0.083333      8.000000
  0.166667  0.250000  0.083333      8.000000
[...]
  0.333333 -0.083333  0.250000      8.000000
  0.333333 -0.000000  0.333333      2.000000
  0.416667  0.000000  0.333333      8.000000
  0.500000 -0.000000  0.333333      8.000000
 -0.416667 -0.000000  0.333333      8.000000
 -0.333333 -0.000000  0.333333      4.000000
  0.416667 -0.250000  0.333333      8.000000
  0.416667 -0.166667  0.333333     16.000000
  0.500000 -0.166667  0.333333      4.000000
  0.416667 -0.083333  0.333333      8.000000
  0.416667 -0.000000  0.416667      2.000000
  0.500000  0.000000  0.416667      8.000000
 -0.416667 -0.000000  0.416667      4.000000
  0.500000 -0.083333  0.416667      4.000000
  0.500000 -0.000000  0.500000      1.000000

 Following cartesian coordinates:
            Coordinates               Weight
  0.000000  0.000000  0.000000      1.000000
 -0.012917 -0.012917  0.012917      8.000000
 -0.025834 -0.025834  0.025834      8.000000
 -0.038752 -0.038752  0.038752      8.000000
 -0.051669 -0.051669  0.051669      8.000000
 -0.064586 -0.064586  0.064586      8.000000
 -0.077503 -0.077503  0.077503      4.000000
  0.000000  0.000000  0.025834      4.000000
 -0.012917 -0.012917  0.038752     16.000000
 -0.025834 -0.025834  0.051669     16.000000
 -0.038752 -0.038752  0.064586     16.000000
 -0.051669 -0.051669  0.077503     16.000000
 -0.064586 -0.064586  0.090420     16.000000
  0.077503  0.077503 -0.051669     16.000000
  0.064586  0.064586 -0.038752     16.000000
  0.051669  0.051669 -0.025834     16.000000
  0.038752  0.038752 -0.012917     16.000000
  0.025834  0.025834  0.000000      8.000000
  0.000000  0.000000  0.051669      4.000000
 -0.012917 -0.012917  0.064586     16.000000
 -0.025834 -0.025834  0.077503     16.000000
 -0.038752 -0.038752  0.090420     16.000000
 -0.051669 -0.051669  0.103338     16.000000
  0.090420  0.090420 -0.038752     16.000000
  0.077503  0.077503 -0.025834     16.000000
  0.064586  0.064586 -0.012917     16.000000
  0.051669  0.051669  0.000000      8.000000
 -0.000000 -0.000000  0.077503      4.000000
 -0.012917 -0.012917  0.090420     16.000000
 -0.025834 -0.025834  0.103338     16.000000
 -0.038752 -0.038752  0.116255     16.000000
  0.103338  0.103338 -0.025834     16.000000
  0.090420  0.090420 -0.012917     16.000000
  0.077503  0.077503  0.000000      8.000000
 -0.000000 -0.000000  0.103338      4.000000
 -0.012917 -0.012917  0.116255     16.000000
 -0.025834 -0.025834  0.129172     16.000000
  0.116255  0.116255 -0.012917     16.000000
  0.103338  0.103338  0.000000      8.000000
  0.000000  0.000000  0.129172      4.000000
 -0.012917 -0.012917  0.142089     16.000000
  0.129172  0.129172  0.000000      8.000000
 -0.000000 -0.000000  0.155006      2.000000
 -0.025834  0.000000 -0.000000      2.000000
 -0.038752 -0.012917  0.012917      8.000000
 -0.051669 -0.025834  0.025834      8.000000
 -0.064586 -0.038752  0.038752      8.000000
 -0.077503 -0.051669  0.051669      8.000000
 -0.090420 -0.064586  0.064586      8.000000
  0.051669  0.077503 -0.077503      8.000000
  0.038752  0.064586 -0.064586      8.000000
  0.025834  0.051669 -0.051669      8.000000
  0.012917  0.038752 -0.038752      8.000000
 -0.000000  0.025834 -0.025834      4.000000
 -0.025834  0.000000  0.051669      8.000000
 -0.038752 -0.012917  0.064586     16.000000
 -0.051669 -0.025834  0.077503     16.000000
 -0.064586 -0.038752  0.090420     16.000000
  0.077503  0.103338 -0.051669      8.000000
  0.000000  0.025834  0.051669      8.000000
[...]
 -0.103338 -0.025834 -0.000000      8.000000
 -0.103338  0.000000 -0.000000      2.000000
 -0.116255 -0.012917  0.012917      8.000000
 -0.129172 -0.025834  0.025834      8.000000
  0.012917  0.116255 -0.116255      8.000000
 -0.000000  0.103338 -0.103338      4.000000
 -0.155006 -0.051669 -0.025834      8.000000
 -0.142089 -0.038752 -0.012917     16.000000
 -0.155006 -0.051669  0.000000      4.000000
 -0.129172 -0.025834  0.000000      8.000000
 -0.129172 -0.000000  0.000000      2.000000
 -0.142089 -0.012917  0.012917      8.000000
 -0.000000  0.129172 -0.129172      4.000000
 -0.155006 -0.025834  0.000000      4.000000
 -0.155006  0.000000  0.000000      1.000000

 Subroutine IBZKPT_HF returns following result:

 Found   1728 k-points in 1st BZ
 the following   1728 k-points will be used (e.g. in the exchange kernel)
 Following reciprocal coordinates:   # in IRBZ
  0.000000  0.000000  0.000000    0.00057870   1 t-inv F
  0.083333  0.000000  0.000000    0.00057870   2 t-inv F
  0.166667  0.000000 -0.000000    0.00057870   3 t-inv F
  0.250000 -0.000000 -0.000000    0.00057870   4 t-inv F
  0.333333 -0.000000  0.000000    0.00057870   5 t-inv F
  0.416667 -0.000000 -0.000000    0.00057870   6 t-inv F
  0.500000 -0.000000 -0.000000    0.00057870   7 t-inv F
  0.083333  0.083333  0.000000    0.00057870   8 t-inv F
  0.166667  0.083333  0.000000    0.00057870   9 t-inv F
  0.250000  0.083333 -0.000000    0.00057870  10 t-inv F
  0.333333  0.083333 -0.000000    0.00057870  11 t-inv F
  0.416667  0.083333 -0.000000    0.00057870  12 t-inv F
[...]
      9       4.7573      0.00000
     10       5.1643      0.00000
     11       5.1643      0.00000
     12       5.1643      0.00000
     13       6.0598      0.00000
     14       6.0598      0.00000
     15       9.9838      0.00000
     16      15.8344      0.00000

[...]

 soft charge-density along one line, spin component           1
         0         1         2         3         4         5         6         7         8         9
 total charge-density along one line

------------------------ aborting loop because EDIFF is reached ----------------------------------------

  FORCE on cell =-STRESS in cart. coord.  units (eV):
  Direction    XX          YY          ZZ          XY          YZ          ZX
  Alpha Z    68.54719    68.54719    68.54719
  Ewald    -280.61036  -280.61036  -280.61036    -0.00000    -0.00000    -0.00000
  Hartree    43.83171    43.83171    43.83171    -0.00000     0.00000    -0.00000
  E(xc)     -54.59690   -54.59690   -54.59690    -0.00000     0.00000    -0.00000
  Local      -7.71221    -7.71221    -7.71221    -0.00000     0.00000    -0.00000
  n-local    37.25414    37.05576    37.45252     0.23024    -0.02900    -0.08175
  augment   -25.86524   -25.86524   -25.86524     0.00000    -0.00000     0.00000
  Kinetic   219.19122   219.37144   219.01100    -5.30369     0.76879     1.96262
  Fock        0.00000     0.00000     0.00000     0.00000     0.00000     0.00000
  Total       0.03954     0.03954     0.03954     0.00000     0.00000     0.00000
  in kB       0.94386     0.94386     0.94386     0.00000     0.00000     0.00000

 VOLUME and BASIS-vectors are now :
  energy-cutoff  :      520.00
  volume of cell :       67.13
      direct lattice vectors                 reciprocal lattice vectors
    -3.225675370  0.000000000  3.225675370    -0.155006299 -0.155006299  0.155006299
     0.000000000  3.225675370  3.225675370     0.155006299  0.155006299  0.155006299
    -3.225675370  3.225675370  0.000000000    -0.155006299  0.155006299 -0.155006299

  length of vectors
     4.561793856  4.561793856  4.561793856     0.268478785  0.268478785  0.268478785

 FORCES acting on ions
    electron-ion (+dipol)            ewald-force                    non-local-force                 convergence-correction
   -.131E-04 0.794E-14 0.140E-13   0.134E-04 -.441E-14 -.478E-14   0.103E-05 -.713E-23 -.590E-23   -.130E-05 -.300E-11 -.299E-11
   0.151E-04 0.305E-11 0.335E-11   -.134E-04 0.476E-14 0.513E-14   -.146E-05 0.150E-22 0.152E-22   -.171E-05 0.938E-11 0.937E-11
   0.191E-05 0.306E-11 0.336E-11   0.592E-16 0.358E-15 0.348E-15   -.422E-06 0.788E-23 0.928E-23   -.302E-05 0.638E-11 0.638E-11

 POSITION                                       TOTAL-FORCE (eV/Angst)
      0.00000      0.00000      0.00000         0.000001     -0.000000      0.000000
     -3.22568      3.22568      3.22568        -0.000001      0.000000     -0.000000
    total drift:                               -0.000002      0.000000      0.000000

  FREE ENERGIE OF THE ION-ELECTRON SYSTEM (eV)
  free  energy   TOTEN  =       -10.19413186 eV

  energy  without entropy=      -10.19413186  energy(sigma->0) =      -10.19413186

 Found     4 degrees of freedom:

     directions for atom     1:  y
     directions for atom     2:  y
 Linear response reoptimize wavefunctions
 Linear response to external field (no local field effect), progress :
  Direction:   1
  LATTYP: Found a face centered cubic cell.
 ALAT       =     6.4513507405

[...]

----------------------------------------- Iteration    1(   1)  ---------------------------------------

 Free energy of the ion-electron system (eV)
  -Hartree energ DENC   =         0.00000000
  -V(xc)+E(xc)   XCENC  =         0.00000000
  PAW double counting   =         0.00000000        0.00000000
  entropy T*S    EENTRO =         0.00000000
  eigenvalues    EBANDS =        -0.76514557
  free energy    TOTEN  =        -0.76514557 eV

  energy without entropy =       -0.76514557

[...]

 change of polarisation eV/A/(eV/A) component  1 :     1.574    -0.199     0.037
 dielectric tensor                  component  1 :     5.244    -0.536     0.100

 Linear response to external field (no local field effect), progress :
  Direction:   2
  LATTYP: Found a face centered cubic cell.
 ALAT       =     6.4513507405

[...]

The dynamic configuration has the point symmetry C_1h.

[...]

 Linear response to external field (no local field effect), progress :
  Direction:   3
  LATTYP: Found a face centered cubic cell.
 ALAT       =     6.4513507405

[...]

 HEAD OF MICROSCOPIC STATIC DIELECTRIC TENSOR (INDEPENDENT PARTICLE, excluding Hartree and local field effects)
           5.244021    -0.000000     0.000000
          -0.000000     5.244444    -0.000000
           0.000000    -0.000000     5.244444

 Linear response to external field, progress :
  Direction:   1
  LATTYP: Found a face centered cubic cell.
 ALAT       =     6.4513507405

[...]

 PIEZOELECTRIC TENSOR FIELD DIRECTION 1  (e Angst)
     0.00011  0.00000  0.00000           (  0.00000  0.00000  0.00000)
     0.00000  0.00006 -0.00000           (  0.00000  0.00000 -0.00000)
     0.00000 -0.00000  0.00006           (  0.00000 -0.00000  0.00000)

 PIEZOELECTRIC TENSOR FIELD DIRECTION 1  (C/m^2)
     0.00003  0.00000  0.00000
     0.00000  0.00001 -0.00000
     0.00000 -0.00000  0.00001

      POSITION         DIRECTION 1           BORN EFFECTIVE CHARGE    (rigid.aug.   ionic)
      0.00000      0.00000      0.00000     2.60682 -0.00000  0.00000 (  1.69457 10.00000)
     -3.22568      3.22568      3.22568    -2.60682 -0.00000 -0.00000 (  0.81696  6.00000)
    total drift (improves with k-points):  -0.00000 -0.00000 -0.00000

[...]

 Linear response to external field, progress :
  Direction:   3
  LATTYP: Found a face centered cubic cell.
 ALAT       =     6.4513507405

[...]

 change of polarisation eV/A/(eV/A) component  3 :    -0.000     0.004     1.412
 dielectric tensor                  component  3 :    -0.000     0.010     4.806

 PIEZOELECTRIC TENSOR FIELD DIRECTION 3  (e Angst)
     0.00000 -0.00000 -0.00013           ( -0.00000 -0.00000  0.00000)
    -0.00000 -0.00001 -0.00000           ( -0.00000 -0.00000 -0.00000)
    -0.00012 -0.00000  0.00004           (  0.00000 -0.00000 -0.00000)

 PIEZOELECTRIC TENSOR FIELD DIRECTION 3  (C/m^2)
     0.00000 -0.00000 -0.00003
    -0.00000 -0.00000 -0.00000
    -0.00003 -0.00000  0.00001

      POSITION         DIRECTION 3           BORN EFFECTIVE CHARGE    (rigid.aug.   ionic)
      0.00000      0.00000      0.00000     0.00001  0.00000  2.60696 (  1.69457 10.00000)
     -3.22568      3.22568      3.22568    -0.00002  0.00000 -2.60708 (  0.81696  6.00000)
    total drift (improves with k-points):  -0.00000  0.00000 -0.00012

[...]

 MACROSCOPIC STATIC DIELECTRIC TENSOR (including local field effects in DFT)
           4.805571    -0.000000     0.000000
          -0.000000     4.806053    -0.000000
           0.000000    -0.000000     4.806053

 Linear response:
   Degrees of freedom DOF   =            4
 Linear response progress:
  Degree of freedom:   1/  4
  LATTYP: Found a face centered cubic cell.
 ALAT       =     6.4513507405

[...]

 INTERNAL STRAIN TENSOR  FOR ION    1  DIRECTION 1   (eV/Angst):
     0.00178 -0.00000  0.00000
    -0.00000 -0.00022  0.00000
     0.00000 -0.00000 -0.00022

 POSITION                   FORCE-CONSTANT FOR ION    1 DIRECTION 1 (eV/Angst/Angst)
      0.00000      0.00000      0.00000        -1.823670      0.000000      0.000000
     -3.22568      3.22568      3.22568         1.823670     -0.000000     -0.000000
    total drift:                                0.000000      0.000000      0.000000

 BORN EFFECTIVE CHARGE FOR ION    1 DIRECTION 1 :   2.607  -0.000   0.000
                   rigid augmentation           :   1.695  -0.000   0.000
                   ionic contribution           :  10.000  -0.000   0.000
                   Berry contribution           :  -9.088   0.000  -0.000

 Linear response progress:
  Degree of freedom:   2/  4
  LATTYP: Found a face centered cubic cell.
 ALAT       =     6.4513507405

[...]

 Linear response progress:
  Degree of freedom:   4/  4
  LATTYP: Found a face centered cubic cell.
 ALAT       =     6.4513507405

[...]

The dynamic configuration has the point symmetry C_1h.

[...]

----------------------------------------- Iteration    8(  14)  ---------------------------------------

 Broyden mixing:
  rms(total) = 0.56830E-06    rms(broyden)= 0.56830E-06
  rms(prec ) = 0.73737E-06
  weight for this iteration     100.00

 eigenvalues of (default mixing * dielectric matrix)
  average eigenvalue GAMMA=   1.8262
  3.3013  3.0765  2.6866  2.3579  2.3579  1.6866  1.5287  1.1439  1.0090  1.0090
  0.8984  0.8580

 Free energy of the ion-electron system (eV)
  -Hartree energ DENC   =        -0.06108923
  -V(xc)+E(xc)   XCENC  =         0.00030962
  PAW double counting   =         0.00014678       -0.00014621
  entropy T*S    EENTRO =        -0.00000000
  eigenvalues    EBANDS =        -0.05142962
  free energy    TOTEN  =        -0.11220865 eV

  energy without entropy =       -0.11220865

[...]

 k-point 476 :       0.0000   -0.5000   -0.5000
  band No.  band energies     occupation
      1      -0.0001      0.00000
      2      -0.0001      0.00000
      3      -0.0001      0.00000
      4      -0.0001      0.00000
      5       0.0002      0.00000
      6       0.0001      0.00000
      7       0.0002      0.00000
      8       0.0002      0.00000
      9       0.0000      0.00000
     10       0.0000      0.00000
     11       0.0000      0.00000
     12      -0.0001      0.00000
     13      -0.0001      0.00000
     14      -0.0000      0.00000
     15       0.0001      0.00000
     16       0.0002      0.00000

------------------------ aborting loop because EDIFF is reached ----------------------------------------

 INTERNAL STRAIN TENSOR  FOR ION    2  DIRECTION 2   (eV/Angst):
     0.00030 -0.00159  0.00000
    -0.00160  0.00037  0.00000
     0.00000  0.00000  0.00005

 POSITION                   FORCE-CONSTANT FOR ION    2 DIRECTION 2 (eV/Angst/Angst)
      0.00000      0.00000      0.00000        -0.000014      1.828436      0.000000
     -3.22568      3.22568      3.22568         0.000014     -1.828436     -0.000000
    total drift:                                0.000000      0.000000      0.000000

 BORN EFFECTIVE CHARGE FOR ION    2 DIRECTION 2 :   0.000  -2.607   0.000
                   rigid augmentation           :  -0.000   0.817  -0.000
                   ionic contribution           :  -0.000   6.000  -0.000
                   Berry contribution           :   0.000  -9.424   0.000

  LATTYP: Found a face centered cubic cell.
 ALAT       =     6.4513507405

  Lattice vectors:

 A1 = (  -3.2256753702,   0.0000000000,   3.2256753702)
 A2 = (   0.0000000000,   3.2256753702,   3.2256753702)
 A3 = (  -3.2256753702,   3.2256753702,   0.0000000000)

Analysis of symmetry for initial positions (statically):
 Subroutine PRICEL returns:
 Original cell was already a primitive cell.

[...]

The static configuration has the point symmetry C_4v.

Analysis of symmetry for dynamics (positions and initial velocities):
 Subroutine PRICEL returns:
 Original cell was already a primitive cell.

 Routine SETGRP: Setting up the symmetry group for a
 face centered cubic supercell.

 Subroutine GETGRP returns: Found  8 space group operations
 (whereof  8 operations were pure point group operations)
 out of a pool of 48 trial point group operations.

The dynamic configuration has the point symmetry C_4v.

 Subroutine INISYM returns: Found  8 space group operations
 (whereof  8 operations are pure point group operations),
 and found     1 'primitive' translations

 MACROSCOPIC STATIC DIELECTRIC TENSOR (including local field effects in DFT)
           4.805571    -0.000000     0.000000
          -0.000000     4.806053    -0.000000
           0.000000    -0.000000     4.806053

 PIEZOELECTRIC TENSOR  for field in x, y, z        (e  Angst)
          XX          YY          ZZ          XY          YZ          ZX
  x     0.00011     0.00006     0.00006     0.00000    -0.00000     0.00000
  y    -0.00002     0.00009    -0.00011     0.00049     0.00000    -0.00000
  z     0.00000    -0.00001     0.00004    -0.00000    -0.00000    -0.00013

 PIEZOELECTRIC TENSOR  for field in x, y, z        (C/m^2)
          XX          YY          ZZ          XY          YZ          ZX
  x     0.00003     0.00001     0.00001    -0.00000    -0.00000     0.00000
  y    -0.00000     0.00000    -0.00000     0.00004     0.00000    -0.00000
  z     0.00000     0.00000    -0.00000    -0.00000    -0.00000     0.00004

 BORN EFFECTIVE CHARGES (in e, cummulative output)
 ion    1
    1     2.60682     0.00000     0.00000
    2    -0.00006     2.60712     0.00000
    3     0.00001    -0.00000     2.60702
 ion    2
    1    -2.60682    -0.00000    -0.00000
    2     0.00006    -2.60712    -0.00000
    3    -0.00001     0.00000    -2.60702

 INTERNAL STRAIN TENSOR FOR ION    1 for displacements in x,y,z  (eV/Angst):
          X           Y           Z          XY          YZ          ZX
  x     0.00178    -0.00022    -0.00022    -0.00000     0.00000     0.00000
  y    -0.00000     0.00000     0.00000    -0.00137    -0.00000     0.00000
  z     0.00000     0.00000     0.00000     0.00000     0.00000    -0.00135

 INTERNAL STRAIN TENSOR FOR ION    2 for displacements in x,y,z  (eV/Angst):
          X           Y           Z          XY          YZ          ZX
  x    -0.00104    -0.00012    -0.00012     0.00000     0.00000    -0.00000
  y     0.00000     0.00000     0.00000    -0.00160    -0.00000     0.00000
  z     0.00000    -0.00000    -0.00000     0.00000     0.00000    -0.00159

 SECOND DERIVATIVES (NOT SYMMETRIZED)
               1X          1Y          1Z          2X          2Y          2Z
  1X    -1.823670    0.000000   -0.000000    1.823670   -0.000000    0.000000
  1Y     0.000000   -1.823678    0.000000   -0.000000    1.823678   -0.000000
  1Z    -0.000000    0.000000   -1.823678    0.000000   -0.000000    1.823678
  2X     1.828372   -0.000000    0.000000   -1.828372    0.000000   -0.000000
  2Y    -0.000000    1.828436   -0.000000    0.000000   -1.828436    0.000000
  2Z     0.000000   -0.000000    1.828436   -0.000000    0.000000   -1.828436

 Eigenvectors and eigenvalues of the dynamical matrix

   1 f  =    4.145062 THz    26.044194 2PiTHz  138.264391 cm-1    17.142606 meV
             X         Y         Z           dx          dy          dz
      0.000000  0.000000  0.000000    -0.000000   -0.434626   -0.000000
     -3.225675  3.225675  3.225675     0.000000    0.900611    0.000000

[...]

   3 f  =    4.145001 THz    26.043812 2PiTHz  138.262358 cm-1    17.142354 meV
             X         Y         Z           dx          dy          dz
      0.000000  0.000000  0.000000    -0.434632    0.000000    0.000000
     -3.225675  3.225675  3.225675     0.900608   -0.000000    0.000000

   4 f/i=    0.002089 THz     0.013124 2PiTHz    0.069674 cm-1     0.008638 meV
             X         Y         Z           dx          dy          dz
      0.000000  0.000000  0.000000     0.900608   -0.000000    0.000000
     -3.225675  3.225675  3.225675     0.434632   -0.000000    0.000000

[...]

   6 f/i=    0.002114 THz     0.013281 2PiTHz    0.070505 cm-1     0.008742 meV
             X         Y         Z           dx          dy          dz
      0.000000  0.000000  0.000000     0.000000   -0.000000    0.900611
     -3.225675  3.225675  3.225675    -0.000000    0.000000    0.434626

 MACROSCOPIC STATIC DIELECTRIC TENSOR IONIC CONTRIBUTION
          10.032020    -0.000247     0.000054
          -0.000247    10.034151    -0.000000
           0.000054    -0.000000    10.033414

 ELASTIC MODULI IONIC CONTR (kBar)
 Direction    XX          YY          ZZ          XY          YZ          ZX
 XX          -0.0000      0.0000      0.0000      0.0000     -0.0000     -0.0000
 YY           0.0000     -0.0000     -0.0000      0.0000      0.0000      0.0000
 ZZ           0.0000     -0.0000     -0.0000     -0.0000      0.0000     -0.0000
 XY           0.0000      0.0000     -0.0000     -0.0000     -0.0000     -0.0000
 YZ          -0.0000      0.0000      0.0000     -0.0000     -0.0000      0.0000
 ZX          -0.0000      0.0000     -0.0000     -0.0000      0.0000     -0.0000

 PIEZOELECTRIC TENSOR IONIC CONTR  for field in x, y, z        (C/m^2)
          XX          YY          ZZ          XY          YZ          ZX
  x     0.00048    -0.00002    -0.00002    -0.00000     0.00000     0.00000
  y    -0.00000     0.00000     0.00000     0.00004     0.00000    -0.00000
  z     0.00000    -0.00000    -0.00000     0.00000    -0.00000     0.00004