 vasp.5.4.4.18Apr17-6-g9f103f2a35 (build Aug 24 2017 11:22:49) complex

 executed on             LinuxIFC date 2023.12.25  13:07:14

 INCAR:
 POTCAR:    PAW_PBE As 22Sep2009
 POTCAR:    PAW_PBE Se 06Sep2000

 POTCAR:    PAW_PBE As 22Sep2009
   VRHFIN =As: s2p3

   TITEL  = PAW_PBE As 22Sep2009
   POMASS =   74.922; ZVAL   =    5.000    mass and valenz
   ENMAX  =  208.702; ENMIN  =  156.526 eV

 POTCAR:    PAW_PBE Se 06Sep2000
   VRHFIN =Se: s2p4

   TITEL  = PAW_PBE Se 06Sep2000
   POMASS =   78.960; ZVAL   =    6.000    mass and valenz
   ENMAX  =  211.555; ENMIN  =  158.666 eV

  PAW_PBE As 22Sep2009                  :
  PAW_PBE Se 06Sep2000                  :

 POSCAR: As8 Se12
  positions in direct lattice
 exchange correlation table for  LEXCH =        8
   RHO(1)=    0.500       N(1)  =     2000
   RHO(2)=  100.500       N(2)  =     4000

 ion  position               nearest neighbor table
   1  0.380  0.197  0.263-  13 2.41   9 2.42  17 2.43
   2  0.620  0.697  0.237-  14 2.41  10 2.42  18 2.43
   3  0.620  0.803  0.737-  15 2.41  11 2.42  19 2.43
   4  0.380  0.303  0.763-  16 2.41  12 2.42  20 2.43
   5  0.109  0.322  0.485-   9 2.39  13 2.43  20 2.45
   6  0.891  0.822  0.015-  10 2.39  14 2.43  19 2.45
   7  0.891  0.678  0.515-  11 2.39  15 2.43  18 2.45
   8  0.109  0.178  0.985-  12 2.39  16 2.43  17 2.45
   9  0.869  0.124  0.401-   5 2.39   1 2.42
  10  0.131  0.624  0.099-   6 2.39   2 2.42
  11  0.131  0.876  0.599-   7 2.39   3 2.42
  12  0.869  0.376  0.901-   8 2.39   4 2.42
  13  0.314  0.400  0.344-   1 2.41   5 2.43
  14  0.686  0.900  0.156-   2 2.41   6 2.43
  15  0.686  0.600  0.656-   3 2.41   7 2.43
  16  0.314  0.100  0.844-   4 2.41   8 2.43
  17  0.549  0.294  0.120-   1 2.43   8 2.45
  18  0.451  0.794  0.380-   2 2.43   7 2.45
  19  0.451  0.706  0.880-   3 2.43   6 2.45
  20  0.549  0.206  0.620-   4 2.43   5 2.45

  LATTYP: Found a simple monoclinic cell.
 ALAT       =    12.8973197456
 B/A-ratio  =     0.8045641385
 C/A-ratio  =     1.9041465046
 COS(beta)  =    -0.9852891363

  Lattice vectors:

 A1 = (  -4.5881279628,   0.0000000000, -12.0536276041)
 A2 = (   0.0000000000, -10.3767209500,   0.0000000000)
 A3 = (   4.6855719575,   0.0000000000,  24.1072552082)

Analysis of symmetry for initial positions (statically):
 Subroutine PRICEL returns:
 Original cell was already a primitive cell.

 Routine SETGRP: Setting up the symmetry group for a
 simple monoclinic supercell.

 Subroutine GETGRP returns: Found  4 space group operations
 (whereof  2 operations were pure point group operations)
 out of a pool of  4 trial point group operations.

The static configuration has the point symmetry S_2 .
 The point group associated with its full space group is C_2h.

Analysis of symmetry for dynamics (positions and initial velocities):
 Subroutine PRICEL returns:
 Original cell was already a primitive cell.

[...]

The dynamic configuration has the point symmetry S_2 .
 The point group associated with its full space group is C_2h.

 Subroutine INISYM returns: Found  4 space group operations
 (whereof  2 operations are pure point group operations),
 and found     1 'primitive' translations

 KPOINTS: pymatgen with grid density = 3000 / numb

Automatic generation of k-mesh.
Space group operators:
 irot       det(A)        alpha          n_x          n_y          n_z        tau_x        tau_y        tau_z
    1     1.000000     0.000000     1.000000     0.000000     0.000000     0.000000     0.000000     0.000000
    2    -1.000000     0.000000     1.000000     0.000000     0.000000     0.000000     0.000000     0.000000
    3     1.000000   180.000000     0.000000     1.000000     0.000000    -1.000000    -0.500000    -0.500000
    4    -1.000000   180.000000     0.000000     1.000000     0.000000    -1.000000    -0.500000    -0.500000

 Subroutine IBZKPT returns following result:

 Found     66 irreducible k-points:

 Following reciprocal coordinates:
            Coordinates               Weight
  0.000000  0.000000  0.000000      1.000000
  0.100000  0.000000  0.000000      2.000000
  0.200000  0.000000 -0.000000      2.000000
  0.300000  0.000000 -0.000000      2.000000
  0.400000  0.000000 -0.000000      2.000000
  0.500000  0.000000 -0.000000      1.000000
  0.000000  0.250000  0.000000      2.000000
  0.100000  0.250000  0.000000      4.000000
  0.200000  0.250000 -0.000000      4.000000
  0.300000  0.250000 -0.000000      4.000000
  0.400000  0.250000 -0.000000      4.000000
  0.500000  0.250000 -0.000000      2.000000
  0.000000  0.500000  0.000000      1.000000
  0.100000  0.500000  0.000000      2.000000
  0.200000  0.500000 -0.000000      2.000000
  0.300000  0.500000 -0.000000      2.000000
  0.400000  0.500000 -0.000000      2.000000
  0.500000  0.500000 -0.000000      1.000000
  0.000000  0.000000  0.250000      2.000000
  0.100000  0.000000  0.250000      2.000000
  0.200000  0.000000  0.250000      2.000000
  0.300000  0.000000  0.250000      2.000000
  0.400000  0.000000  0.250000      2.000000
  0.500000  0.000000  0.250000      2.000000
 -0.400000  0.000000  0.250000      2.000000
 -0.300000  0.000000  0.250000      2.000000
 -0.200000  0.000000  0.250000      2.000000
 -0.100000  0.000000  0.250000      2.000000
  0.000000  0.250000  0.250000      4.000000
  0.100000  0.250000  0.250000      4.000000
  0.200000  0.250000  0.250000      4.000000
  0.300000  0.250000  0.250000      4.000000
  0.400000  0.250000  0.250000      4.000000
  0.500000  0.250000  0.250000      4.000000
 -0.400000  0.250000  0.250000      4.000000
 -0.300000  0.250000  0.250000      4.000000
 -0.200000  0.250000  0.250000      4.000000
 -0.100000  0.250000  0.250000      4.000000
  0.000000  0.500000  0.250000      2.000000
  0.100000  0.500000  0.250000      2.000000
  0.200000  0.500000  0.250000      2.000000
  0.300000  0.500000  0.250000      2.000000
  0.400000  0.500000  0.250000      2.000000
  0.500000  0.500000  0.250000      2.000000
 -0.400000  0.500000  0.250000      2.000000
 -0.300000  0.500000  0.250000      2.000000
 -0.200000  0.500000  0.250000      2.000000
 -0.100000  0.500000  0.250000      2.000000
  0.000000  0.000000  0.500000      1.000000
  0.100000  0.000000  0.500000      2.000000
  0.200000  0.000000  0.500000      2.000000
  0.300000  0.000000  0.500000      2.000000
  0.400000  0.000000  0.500000      2.000000
  0.500000  0.000000  0.500000      1.000000
  0.000000  0.250000  0.500000      2.000000
  0.100000  0.250000  0.500000      4.000000
  0.200000  0.250000  0.500000      4.000000
  0.300000  0.250000  0.500000      4.000000
  0.400000  0.250000  0.500000      4.000000
  0.500000  0.250000  0.500000      2.000000
  0.000000  0.500000  0.500000      1.000000
  0.100000  0.500000  0.500000      2.000000
  0.200000  0.500000  0.500000      2.000000
  0.300000  0.500000  0.500000      2.000000
  0.400000  0.500000  0.500000      2.000000
  0.500000  0.500000  0.500000      1.000000

 Following cartesian coordinates:
            Coordinates               Weight
  0.000000  0.000000  0.000000      1.000000
  0.022268  0.000000  0.008116      2.000000
  0.044537  0.000000  0.016232      2.000000
  0.066805  0.000000  0.024349      2.000000
  0.089073  0.000000  0.032465      2.000000
  0.111342  0.000000  0.040581      1.000000
  0.000000  0.024092  0.000000      2.000000
  0.022268  0.024092  0.008116      4.000000
  0.044537  0.024092  0.016232      4.000000
  0.066805  0.024092  0.024349      4.000000
  0.089073  0.024092  0.032465      4.000000
  0.111342  0.024092  0.040581      2.000000
  0.000000  0.048185  0.000000      1.000000
  0.022268  0.048185  0.008116      2.000000
  0.044537  0.048185  0.016232      2.000000
  0.066805  0.048185  0.024349      2.000000
  0.089073  0.048185  0.032465      2.000000
  0.111342  0.048185  0.040581      1.000000
  0.000000  0.000000  0.020741      2.000000
  0.022268  0.000000  0.028857      2.000000
  0.044537  0.000000  0.036973      2.000000
  0.066805  0.000000  0.045089      2.000000
  0.089073  0.000000  0.053206      2.000000
  0.111342  0.000000  0.061322      2.000000
 -0.089073  0.000000 -0.011724      2.000000
 -0.066805  0.000000 -0.003608      2.000000
 -0.044537  0.000000  0.004508      2.000000
 -0.022268  0.000000  0.012624      2.000000
  0.000000  0.024092  0.020741      4.000000
  0.022268  0.024092  0.028857      4.000000
  0.044537  0.024092  0.036973      4.000000
  0.066805  0.024092  0.045089      4.000000
  0.089073  0.024092  0.053206      4.000000
  0.111342  0.024092  0.061322      4.000000
 -0.089073  0.024092 -0.011724      4.000000
 -0.066805  0.024092 -0.003608      4.000000
 -0.044537  0.024092  0.004508      4.000000
 -0.022268  0.024092  0.012624      4.000000
  0.000000  0.048185  0.020741      2.000000
  0.022268  0.048185  0.028857      2.000000
  0.044537  0.048185  0.036973      2.000000
  0.066805  0.048185  0.045089      2.000000
  0.089073  0.048185  0.053206      2.000000
  0.111342  0.048185  0.061322      2.000000
 -0.089073  0.048185 -0.011724      2.000000
 -0.066805  0.048185 -0.003608      2.000000
 -0.044537  0.048185  0.004508      2.000000
 -0.022268  0.048185  0.012624      2.000000
  0.000000  0.000000  0.041481      1.000000
  0.022268  0.000000  0.049598      2.000000
  0.044537  0.000000  0.057714      2.000000
  0.066805  0.000000  0.065830      2.000000
  0.089073  0.000000  0.073946      2.000000
  0.111342  0.000000  0.082062      1.000000
  0.000000  0.024092  0.041481      2.000000
  0.022268  0.024092  0.049598      4.000000
  0.044537  0.024092  0.057714      4.000000
  0.066805  0.024092  0.065830      4.000000
  0.089073  0.024092  0.073946      4.000000
  0.111342  0.024092  0.082062      2.000000
  0.000000  0.048185  0.041481      1.000000
  0.022268  0.048185  0.049598      2.000000
  0.044537  0.048185  0.057714      2.000000
  0.066805  0.048185  0.065830      2.000000
  0.089073  0.048185  0.073946      2.000000
  0.111342  0.048185  0.082062      1.000000

 Subroutine IBZKPT_HF returns following result:

 Found    160 k-points in 1st BZ
 the following    160 k-points will be used (e.g. in the exchange kernel)
 Following reciprocal coordinates:   # in IRBZ
  0.000000  0.000000  0.000000    0.00625000   1 t-inv F
  0.100000  0.000000  0.000000    0.00625000   2 t-inv F
  0.200000  0.000000 -0.000000    0.00625000   3 t-inv F
  0.300000  0.000000 -0.000000    0.00625000   4 t-inv F
  0.400000  0.000000 -0.000000    0.00625000   5 t-inv F
  0.500000  0.000000 -0.000000    0.00625000   6 t-inv F
  0.000000  0.250000  0.000000    0.00625000   7 t-inv F
  0.100000  0.250000  0.000000    0.00625000   8 t-inv F
  0.200000  0.250000 -0.000000    0.00625000   9 t-inv F
  0.300000  0.250000 -0.000000    0.00625000  10 t-inv F
  0.400000  0.250000 -0.000000    0.00625000  11 t-inv F
  0.500000  0.250000 -0.000000    0.00625000  12 t-inv F
  0.000000  0.500000  0.000000    0.00625000  13 t-inv F
  0.100000  0.500000  0.000000    0.00625000  14 t-inv F
  0.200000  0.500000 -0.000000    0.00625000  15 t-inv F
  0.300000  0.500000 -0.000000    0.00625000  16 t-inv F
  0.400000  0.500000 -0.000000    0.00625000  17 t-inv F
[...]
 17X     3.459670    2.017924   -2.708958    0.046552   -0.061663   -0.025669   -0.019223   -0.007475   -0.003016   -0.091531    0.020265    0.027159   -0.065165    0.073605   -0.020643   -0.038903   -0.041788    0.029810    0.019112    0.019706   -0.007700    3.478387    2.153862    2.359090   -0.107416   -0.220798    0.095003    0.061601   -0.009002    0.000743    0.000859   -0.029065   -0.000545    0.206721    0.120570    0.205223    0.107688    0.042961   -0.124834   -0.021742    0.039657   -0.005483   -0.005419    0.003905    0.002211   -0.137500   -0.197266   -0.086738   -6.942386   -3.951487    0.250064   -0.014859    0.010550    0.004629    0.014735    0.017832    0.000751    0.048819   -0.002292    0.008903
 17Y     2.115433    2.433205   -2.154601   -0.013971    0.009407   -0.006646   -0.008074   -0.013383   -0.007929   -0.105475    0.145059   -0.262676   -0.120311    0.157020    0.232222   -0.024056    0.042145    0.044636    0.015428   -0.004371    0.021646    2.387647    2.721018    2.091268    0.077562   -0.004680   -0.266303   -0.009911    0.017216   -0.111822    0.007530   -0.001369   -0.005303   -0.165146   -0.439156   -0.044605   -0.239129   -0.529137    0.132663    0.007717    0.109131   -0.032460   -0.007606    0.002069    0.002202    0.022793   -0.008923    0.313412   -3.950821   -4.671667    0.016359   -0.010184   -0.015712   -0.004815    0.017927    0.010566    0.009495    0.002648    0.041563    0.033258
 17Z    -2.296588   -1.712854    2.811822    0.026859   -0.037365    0.020383   -0.018784   -0.042158   -0.030938    0.238295   -0.023013   -0.144663   -0.234203    0.013900   -0.174015   -0.017714   -0.017908    0.025563   -0.005646   -0.010803   -0.015005    1.989579    1.753016    2.240832    0.073438   -0.158326    0.863869   -0.001492   -0.035008   -0.013485    0.035959    0.031907    0.001861    0.419801    0.067266    0.706107   -0.387215    0.016244    0.550791    0.023302   -0.001761   -0.017054   -0.002311    0.008838    0.009535   -0.107587    0.150604    0.709165    0.249938    0.016543   -7.747371    0.004217    0.004626   -0.002837    0.000980    0.009309   -0.000824    0.009172   -0.033059    0.206265
 18X     0.046552    0.061663   -0.025669    3.459670   -2.017924   -2.708958   -0.091531   -0.020265    0.027159   -0.019223    0.007475   -0.003016   -0.038903    0.041788    0.029810   -0.065165   -0.073605   -0.020643    3.478387   -2.153862    2.359090    0.019112   -0.019706   -0.007700    0.061601    0.009002    0.000743   -0.107416    0.220798    0.095003    0.206721   -0.120570    0.205223    0.000859    0.029065   -0.000545   -0.021742   -0.039657   -0.005483    0.107688   -0.042961   -0.124834   -0.137500    0.197266   -0.086738   -0.005419   -0.003905    0.002211   -0.014859   -0.010550    0.004629   -6.942386    3.951487    0.250064    0.048819    0.002292    0.008903    0.014735   -0.017832    0.000751
 18Y     0.013971    0.009407    0.006646   -2.115433    2.433205    2.154601    0.105475    0.145059    0.262676    0.008074   -0.013383    0.007929    0.024056    0.042145   -0.044636    0.120311    0.157020   -0.232222   -2.387647    2.721018   -2.091268   -0.015428   -0.004371   -0.021646    0.009911    0.017216    0.111822   -0.077562   -0.004680    0.266303    0.165146   -0.439156    0.044605   -0.007530   -0.001369    0.005303   -0.007717    0.109131    0.032460    0.239129   -0.529137   -0.132663   -0.022793   -0.008923   -0.313412    0.007606    0.002069   -0.002202    0.010184   -0.015712    0.004815    3.950821   -4.671667   -0.016359   -0.002648    0.041563   -0.033258   -0.017927    0.010566   -0.009495
 18Z     0.026859    0.037365    0.020383   -2.296588    1.712854    2.811822    0.238295    0.023013   -0.144663   -0.018784    0.042158   -0.030938   -0.017714    0.017908    0.025563   -0.234203   -0.013900   -0.174015    1.989579   -1.753016    2.240832   -0.005646    0.010803   -0.015005   -0.001492    0.035008   -0.013485    0.073438    0.158326    0.863869    0.419801   -0.067266    0.706107    0.035959   -0.031907    0.001861    0.023302    0.001761   -0.017054   -0.387215   -0.016244    0.550791   -0.107587   -0.150604    0.709165   -0.002311   -0.008838    0.009535    0.004217   -0.004626   -0.002837    0.249938   -0.016543   -7.747371    0.009172    0.033059    0.206265    0.000980   -0.009309   -0.000824
 19X    -0.019223   -0.007475   -0.003016   -0.091531    0.020265    0.027159    3.459670    2.017924   -2.708958    0.046552   -0.061663   -0.025669    0.019112    0.019706   -0.007700    3.478387    2.153862    2.359090   -0.065165    0.073605   -0.020643   -0.038903   -0.041788    0.029810    0.000859   -0.029065   -0.000545    0.206721    0.120570    0.205223   -0.107416   -0.220798    0.095003    0.061601   -0.009002    0.000743   -0.005419    0.003905    0.002211   -0.137500   -0.197266   -0.086738    0.107688    0.042961   -0.124834   -0.021742    0.039657   -0.005483    0.014735    0.017832    0.000751    0.048819   -0.002292    0.008903   -6.942386   -3.951487    0.250064   -0.014859    0.010550    0.004629
 19Y    -0.008074   -0.013383   -0.007929   -0.105475    0.145059   -0.262676    2.115433    2.433205   -2.154601   -0.013971    0.009407   -0.006646    0.015428   -0.004371    0.021646    2.387647    2.721018    2.091268   -0.120311    0.157020    0.232222   -0.024056    0.042145    0.044636    0.007530   -0.001369   -0.005303   -0.165146   -0.439156   -0.044605    0.077562   -0.004680   -0.266303   -0.009911    0.017216   -0.111822   -0.007606    0.002069    0.002202    0.022793   -0.008923    0.313412   -0.239129   -0.529137    0.132663    0.007717    0.109131   -0.032460    0.017927    0.010566    0.009495    0.002648    0.041563    0.033258   -3.950821   -4.671667    0.016359   -0.010184   -0.015712   -0.004815
 19Z    -0.018784   -0.042158   -0.030938    0.238295   -0.023013   -0.144663   -2.296588   -1.712854    2.811822    0.026859   -0.037365    0.020383   -0.005646   -0.010803   -0.015005    1.989579    1.753016    2.240832   -0.234203    0.013900   -0.174015   -0.017714   -0.017908    0.025563    0.035959    0.031907    0.001861    0.419801    0.067266    0.706107    0.073438   -0.158326    0.863869   -0.001492   -0.035008   -0.013485   -0.002311    0.008838    0.009535   -0.107587    0.150604    0.709165   -0.387215    0.016244    0.550791    0.023302   -0.001761   -0.017054    0.000980    0.009309   -0.000824    0.009172   -0.033059    0.206265    0.249938    0.016543   -7.747371    0.004217    0.004626   -0.002837
 20X    -0.091531   -0.020265    0.027159   -0.019223    0.007475   -0.003016    0.046552    0.061663   -0.025669    3.459670   -2.017924   -2.708958    3.478387   -2.153862    2.359090    0.019112   -0.019706   -0.007700   -0.038903    0.041788    0.029810   -0.065165   -0.073605   -0.020643    0.206721   -0.120570    0.205223    0.000859    0.029065   -0.000545    0.061601    0.009002    0.000743   -0.107416    0.220798    0.095003   -0.137500    0.197266   -0.086738   -0.005419   -0.003905    0.002211   -0.021742   -0.039657   -0.005483    0.107688   -0.042961   -0.124834    0.048819    0.002292    0.008903    0.014735   -0.017832    0.000751   -0.014859   -0.010550    0.004629   -6.942386    3.951487    0.250064
 20Y     0.105475    0.145059    0.262676    0.008074   -0.013383    0.007929    0.013971    0.009407    0.006646   -2.115433    2.433205    2.154601   -2.387647    2.721018   -2.091268   -0.015428   -0.004371   -0.021646    0.024056    0.042145   -0.044636    0.120311    0.157020   -0.232222    0.165146   -0.439156    0.044605   -0.007530   -0.001369    0.005303    0.009911    0.017216    0.111822   -0.077562   -0.004680    0.266303   -0.022793   -0.008923   -0.313412    0.007606    0.002069   -0.002202   -0.007717    0.109131    0.032460    0.239129   -0.529137   -0.132663   -0.002648    0.041563   -0.033258   -0.017927    0.010566   -0.009495    0.010184   -0.015712    0.004815    3.950821   -4.671667   -0.016359
 20Z     0.238295    0.023013   -0.144663   -0.018784    0.042158   -0.030938    0.026859    0.037365    0.020383   -2.296588    1.712854    2.811822    1.989579   -1.753016    2.240832   -0.005646    0.010803   -0.015005   -0.017714    0.017908    0.025563   -0.234203   -0.013900   -0.174015    0.419801   -0.067266    0.706107    0.035959   -0.031907    0.001861   -0.001492    0.035008   -0.013485    0.073438    0.158326    0.863869   -0.107587   -0.150604    0.709165   -0.002311   -0.008838    0.009535    0.023302    0.001761   -0.017054   -0.387215   -0.016244    0.550791    0.009172    0.033059    0.206265    0.000980   -0.009309   -0.000824    0.004217   -0.004626   -0.002837    0.249938   -0.016543   -7.747371

 Eigenvectors and eigenvalues of the dynamical matrix

   1 f  =    8.549241 THz    53.716468 2PiTHz  285.171990 cm-1    35.356833 meV
             X         Y         Z           dx          dy          dz
      0.550963  2.048188  3.174590     0.039669    0.247523   -0.007787
      1.743101  7.236549  2.852224     0.039669   -0.247523   -0.007787
     -0.453519  8.328533  8.879038    -0.039669   -0.247523    0.007787
     -1.645657  3.140172  9.201404    -0.039669    0.247523    0.007787
     -1.641616  3.340270  5.845243    -0.036717    0.276743    0.004634
      3.935680  8.528631  0.181571    -0.036717   -0.276743    0.004634
      1.739060  7.036451  6.208384     0.036717   -0.276743   -0.004634
     -3.838236  1.848090 11.872057     0.036717    0.276743   -0.004634
      2.140740  1.289332  4.832294    -0.013721   -0.199999   -0.051230
      0.153324  6.477692  1.194520    -0.013721    0.199999   -0.051230
     -2.043296  9.087389  7.221334     0.013721    0.199999    0.051230
     -0.055880  3.899029 10.859107     0.013721   -0.199999    0.051230
     -0.100621  4.154660  4.148573     0.004510   -0.184931   -0.038910
      2.394685  9.343020  1.878240     0.004510    0.184931   -0.038910
      0.198065  6.222061  7.905054    -0.004510    0.184931    0.038910
     -2.297241  1.033701 10.175387    -0.004510   -0.184931    0.038910
      1.938444  3.046456  1.441247    -0.122230   -0.125121   -0.000199
      0.355620  8.234816  4.585567    -0.122230    0.125121   -0.000199
     -1.841000  7.330265 10.612381     0.122230    0.125121    0.000199
     -0.258176  2.141905  7.468061     0.122230   -0.125121    0.000199

[...]

  57 f  =    0.277425 THz     1.743113 2PiTHz    9.253903 cm-1     1.147338 meV
             X         Y         Z           dx          dy          dz
      0.550963  2.048188  3.174590     0.205739    0.070699    0.011568
      1.743101  7.236549  2.852224    -0.205739    0.070699   -0.011568
     -0.453519  8.328533  8.879038    -0.205739   -0.070699   -0.011568
     -1.645657  3.140172  9.201404     0.205739   -0.070699    0.011568
     -1.641616  3.340270  5.845243     0.196060   -0.037705    0.052577
      3.935680  8.528631  0.181571    -0.196060   -0.037705   -0.052577
      1.739060  7.036451  6.208384    -0.196060    0.037705   -0.052577
     -3.838236  1.848090 11.872057     0.196060    0.037705    0.052577
      2.140740  1.289332  4.832294     0.226894    0.001511   -0.036442
      0.153324  6.477692  1.194520    -0.226894    0.001511    0.036442
     -2.043296  9.087389  7.221334    -0.226894   -0.001511    0.036442
     -0.055880  3.899029 10.859107     0.226894   -0.001511   -0.036442
     -0.100621  4.154660  4.148573     0.222345    0.036588    0.098827
      2.394685  9.343020  1.878240    -0.222345    0.036588   -0.098827
      0.198065  6.222061  7.905054    -0.222345   -0.036588   -0.098827
     -2.297241  1.033701 10.175387     0.222345   -0.036588    0.098827
      1.938444  3.046456  1.441247     0.191932    0.097426    0.015176
      0.355620  8.234816  4.585567    -0.191932    0.097426   -0.015176
     -1.841000  7.330265 10.612381    -0.191932   -0.097426   -0.015176
     -0.258176  2.141905  7.468061     0.191932   -0.097426    0.015176

  58 f/i=    0.000490 THz     0.003077 2PiTHz    0.016335 cm-1     0.002025 meV
             X         Y         Z           dx          dy          dz
      0.550963  2.048188  3.174590    -0.000007    0.220101    0.000010
      1.743101  7.236549  2.852224     0.000007    0.220101   -0.000010
     -0.453519  8.328533  8.879038    -0.000007    0.220101    0.000010
     -1.645657  3.140172  9.201404     0.000007    0.220101   -0.000010
     -1.641616  3.340270  5.845243     0.000026    0.220073    0.000029
      3.935680  8.528631  0.181571    -0.000026    0.220073   -0.000029
      1.739060  7.036451  6.208384     0.000026    0.220073    0.000029
     -3.838236  1.848090 11.872057    -0.000026    0.220073   -0.000029
      2.140740  1.289332  4.832294    -0.000034    0.225957    0.000038
      0.153324  6.477692  1.194520     0.000034    0.225957   -0.000038
     -2.043296  9.087389  7.221334    -0.000034    0.225957    0.000038
     -0.055880  3.899029 10.859107     0.000034    0.225957   -0.000038
     -0.100621  4.154660  4.148573    -0.000012    0.225944    0.000015
      2.394685  9.343020  1.878240     0.000012    0.225944   -0.000015
      0.198065  6.222061  7.905054    -0.000012    0.225944    0.000015
     -2.297241  1.033701 10.175387     0.000012    0.225944   -0.000015
      1.938444  3.046456  1.441247     0.000014    0.225868   -0.000009
      0.355620  8.234816  4.585567    -0.000014    0.225868    0.000009
     -1.841000  7.330265 10.612381     0.000014    0.225868   -0.000009
     -0.258176  2.141905  7.468061    -0.000014    0.225868    0.000009

[...]

  60 f/i=    0.002026 THz     0.012731 2PiTHz    0.067586 cm-1     0.008380 meV
             X         Y         Z           dx          dy          dz
      0.550963  2.048188  3.174590    -0.009909   -0.000184   -0.219920
      1.743101  7.236549  2.852224    -0.009909    0.000184   -0.219920
     -0.453519  8.328533  8.879038    -0.009909   -0.000184   -0.219920
     -1.645657  3.140172  9.201404    -0.009909    0.000184   -0.219920
     -1.641616  3.340270  5.845243    -0.010056   -0.000416   -0.219747
      3.935680  8.528631  0.181571    -0.010056    0.000416   -0.219747
      1.739060  7.036451  6.208384    -0.010056   -0.000416   -0.219747
     -3.838236  1.848090 11.872057    -0.010056    0.000416   -0.219747
      2.140740  1.289332  4.832294    -0.010245   -0.000380   -0.225796
      0.153324  6.477692  1.194520    -0.010245    0.000380   -0.225796
     -2.043296  9.087389  7.221334    -0.010245   -0.000380   -0.225796
     -0.055880  3.899029 10.859107    -0.010245    0.000380   -0.225796
     -0.100621  4.154660  4.148573    -0.010480   -0.000337   -0.225709
      2.394685  9.343020  1.878240    -0.010480    0.000337   -0.225709
      0.198065  6.222061  7.905054    -0.010480   -0.000337   -0.225709
     -2.297241  1.033701 10.175387    -0.010480    0.000337   -0.225709
      1.938444  3.046456  1.441247    -0.010252    0.000268   -0.225606
      0.355620  8.234816  4.585567    -0.010252   -0.000268   -0.225606
     -1.841000  7.330265 10.612381    -0.010252    0.000268   -0.225606
     -0.258176  2.141905  7.468061    -0.010252   -0.000268   -0.225606

 MACROSCOPIC STATIC DIELECTRIC TENSOR IONIC CONTRIBUTION
           3.960357     0.000000    -0.124633
           0.000000     0.299424    -0.000000
          -0.124633    -0.000000     3.019308

 ELASTIC MODULI IONIC CONTR (kBar)
 Direction    XX          YY          ZZ          XY          YZ          ZX
 XX        -441.4531   -268.0704   -357.7277     -0.0000     -0.0000     -3.7690
 YY        -268.0704   -889.4935   -235.1388     -0.0000     -0.0000     -1.0741
 ZZ        -357.7277   -235.1388   -429.9708      0.0000     -0.0000      3.4485
 XY          -0.0000     -0.0000      0.0000   -311.5111     -9.3387      0.0000
 YZ          -0.0000     -0.0000     -0.0000     -9.3387   -305.8473      0.0000
 ZX          -3.7690     -1.0741      3.4485      0.0000      0.0000   -323.8449

 PIEZOELECTRIC TENSOR IONIC CONTR  for field in x, y, z        (C/m^2)
          XX          YY          ZZ          XY          YZ          ZX
  x     0.00001    -0.00012    -0.00000     0.00000    -0.00000    -0.00004
  y    -0.00001    -0.00001    -0.00004    -0.00000     0.00000    -0.00001
  z     0.00004     0.00008    -0.00004    -0.00000    -0.00000    -0.00001