 vasp.5.4.4.18Apr17-6-g9f103f2a35 (build Aug 24 2017 11:22:49) complex

 executed on             LinuxIFC date 2023.12.25  13:07:42

 INCAR:
 POTCAR:    PAW_PBE Na_pv 19Sep2006
 POTCAR:    PAW_PBE Br 06Sep2000

 POTCAR:    PAW_PBE Na_pv 19Sep2006
   VRHFIN =Na: p6s1

   TITEL  = PAW_PBE Na_pv 19Sep2006
   POMASS =   22.990; ZVAL   =    7.000    mass and valenz
   ENMAX  =  259.561; ENMIN  =  194.671 eV

 POTCAR:    PAW_PBE Br 06Sep2000
   VRHFIN =Br: s2p5

   TITEL  = PAW_PBE Br 06Sep2000
   POMASS =   79.904; ZVAL   =    7.000    mass and valenz
   ENMAX  =  216.285; ENMIN  =  162.214 eV

  PAW_PBE Na_pv 19Sep2006               :
  PAW_PBE Br 06Sep2000                  :

 POSCAR: Na1 Br1
  positions in direct lattice
 exchange correlation table for  LEXCH =        8
   RHO(1)=    0.500       N(1)  =     2000
   RHO(2)=  100.500       N(2)  =     4000

 ion  position               nearest neighbor table
   1  0.000  0.000  0.000-
   2  0.500  0.500  0.500-

  LATTYP: Found a face centered cubic cell.
 ALAT       =     5.9230840528

  Lattice vectors:

 A1 = (  -2.9615420264,   0.0000000000,   2.9615420264)
 A2 = (   0.0000000000,   2.9615420264,   2.9615420264)
 A3 = (  -2.9615420264,   2.9615420264,   0.0000000000)

Analysis of symmetry for initial positions (statically):
 Subroutine PRICEL returns:
 Original cell was already a primitive cell.

 Routine SETGRP: Setting up the symmetry group for a
 face centered cubic supercell.

 Subroutine GETGRP returns: Found  8 space group operations
 (whereof  8 operations were pure point group operations)
 out of a pool of 48 trial point group operations.

The static configuration has the point symmetry C_4v.

Analysis of symmetry for dynamics (positions and initial velocities):
 Subroutine PRICEL returns:
 Original cell was already a primitive cell.

[...]

The dynamic configuration has the point symmetry C_4v.

 Subroutine INISYM returns: Found  8 space group operations
 (whereof  8 operations are pure point group operations),
 and found     1 'primitive' translations

 KPOINTS: pymatgen with grid density = 3000 / numb

Automatic generation of k-mesh.
Space group operators:
 irot       det(A)        alpha          n_x          n_y          n_z        tau_x        tau_y        tau_z
    1     1.000000     0.000000     1.000000     0.000000     0.000000     0.000000     0.000000     0.000000
    2     1.000000    90.000000    -1.000000    -0.000000    -0.000000     0.000000     0.000000     0.000000
    3    -1.000000   180.000000    -0.000000    -0.000000    -1.000000     0.000000     0.000000     0.000000
    4    -1.000000   180.000000     0.000000     0.707107     0.707107     0.000000     0.000000     0.000000
    5    -1.000000   180.000000     0.000000    -1.000000     0.000000     0.000000     0.000000     0.000000
    6     1.000000    90.000000     1.000000     0.000000    -0.000000     0.000000     0.000000     0.000000
    7     1.000000   180.000000     1.000000     0.000000     0.000000     0.000000     0.000000     0.000000
    8    -1.000000   180.000000     0.000000    -0.707107     0.707107     0.000000     0.000000     0.000000

 Subroutine IBZKPT returns following result:

 Found    163 irreducible k-points:

 Following reciprocal coordinates:
            Coordinates               Weight
  0.000000  0.000000  0.000000      1.000000
  0.083333 -0.000000 -0.000000      8.000000
  0.166667 -0.000000 -0.000000      8.000000
  0.250000  0.000000  0.000000      8.000000
  0.333333 -0.000000 -0.000000      8.000000
  0.416667 -0.000000 -0.000000      8.000000
  0.500000  0.000000  0.000000      4.000000
  0.083333  0.083333 -0.000000      4.000000
  0.166667  0.083333  0.000000     16.000000
  0.250000  0.083333 -0.000000     16.000000
  0.333333  0.083333 -0.000000     16.000000
  0.416667  0.083333 -0.000000     16.000000
  0.500000  0.083333 -0.000000     16.000000
 -0.416667  0.083333 -0.000000     16.000000
 -0.333333  0.083333 -0.000000     16.000000
 -0.250000  0.083333  0.000000     16.000000
 -0.166667  0.083333 -0.000000     16.000000
 -0.083333  0.083333  0.000000      8.000000
  0.166667  0.166667 -0.000000      4.000000
  0.250000  0.166667 -0.000000     16.000000
  0.333333  0.166667 -0.000000     16.000000
  0.416667  0.166667  0.000000     16.000000
  0.500000  0.166667 -0.000000     16.000000
 -0.416667  0.166667  0.000000     16.000000
 -0.333333  0.166667 -0.000000     16.000000
 -0.250000  0.166667  0.000000     16.000000
 -0.166667  0.166667  0.000000      8.000000
  0.250000  0.250000 -0.000000      4.000000
  0.333333  0.250000 -0.000000     16.000000
  0.416667  0.250000 -0.000000     16.000000
  0.500000  0.250000  0.000000     16.000000
 -0.416667  0.250000 -0.000000     16.000000
 -0.333333  0.250000  0.000000     16.000000
 -0.250000  0.250000 -0.000000      8.000000
  0.333333  0.333333 -0.000000      4.000000
  0.416667  0.333333 -0.000000     16.000000
  0.500000  0.333333 -0.000000     16.000000
 -0.416667  0.333333 -0.000000     16.000000
 -0.333333  0.333333  0.000000      8.000000
  0.416667  0.416667 -0.000000      4.000000
  0.500000  0.416667 -0.000000     16.000000
 -0.416667  0.416667  0.000000      8.000000
  0.500000  0.500000 -0.000000      2.000000
  0.083333 -0.000000  0.083333      2.000000
  0.166667 -0.000000  0.083333      8.000000
  0.250000 -0.000000  0.083333      8.000000
  0.333333  0.000000  0.083333      8.000000
  0.416667 -0.000000  0.083333      8.000000
  0.500000  0.000000  0.083333      8.000000
 -0.416667 -0.000000  0.083333      8.000000
 -0.333333  0.000000  0.083333      8.000000
 -0.250000 -0.000000  0.083333      8.000000
 -0.166667 -0.000000  0.083333      8.000000
 -0.083333  0.000000  0.083333      4.000000
  0.250000  0.166667  0.083333      8.000000
  0.333333  0.166667  0.083333     16.000000
  0.416667  0.166667  0.083333     16.000000
  0.500000  0.166667  0.083333     16.000000
 -0.416667  0.166667  0.083333      8.000000
  0.166667  0.250000  0.083333      8.000000
[...]
  0.333333 -0.083333  0.250000      8.000000
  0.333333 -0.000000  0.333333      2.000000
  0.416667 -0.000000  0.333333      8.000000
  0.500000 -0.000000  0.333333      8.000000
 -0.416667  0.000000  0.333333      8.000000
 -0.333333  0.000000  0.333333      4.000000
  0.416667 -0.250000  0.333333      8.000000
  0.416667 -0.166667  0.333333     16.000000
  0.500000 -0.166667  0.333333      4.000000
  0.416667 -0.083333  0.333333      8.000000
  0.416667 -0.000000  0.416667      2.000000
  0.500000 -0.000000  0.416667      8.000000
 -0.416667  0.000000  0.416667      4.000000
  0.500000 -0.083333  0.416667      4.000000
  0.500000 -0.000000  0.500000      1.000000

 Following cartesian coordinates:
            Coordinates               Weight
  0.000000  0.000000  0.000000      1.000000
 -0.014069 -0.014069  0.014069      8.000000
 -0.028138 -0.028138  0.028138      8.000000
 -0.042208 -0.042208  0.042208      8.000000
 -0.056277 -0.056277  0.056277      8.000000
 -0.070346 -0.070346  0.070346      8.000000
 -0.084415 -0.084415  0.084415      4.000000
  0.000000 -0.000000  0.028138      4.000000
 -0.014069 -0.014069  0.042208     16.000000
 -0.028138 -0.028138  0.056277     16.000000
 -0.042208 -0.042208  0.070346     16.000000
 -0.056277 -0.056277  0.084415     16.000000
 -0.070346 -0.070346  0.098485     16.000000
  0.084415  0.084415 -0.056277     16.000000
  0.070346  0.070346 -0.042208     16.000000
  0.056277  0.056277 -0.028138     16.000000
  0.042208  0.042208 -0.014069     16.000000
  0.028138  0.028138 -0.000000      8.000000
  0.000000 -0.000000  0.056277      4.000000
 -0.014069 -0.014069  0.070346     16.000000
 -0.028138 -0.028138  0.084415     16.000000
 -0.042208 -0.042208  0.098485     16.000000
 -0.056277 -0.056277  0.112554     16.000000
  0.098485  0.098485 -0.042208     16.000000
  0.084415  0.084415 -0.028138     16.000000
  0.070346  0.070346 -0.014069     16.000000
  0.056277  0.056277 -0.000000      8.000000
  0.000000  0.000000  0.084415      4.000000
 -0.014069 -0.014069  0.098485     16.000000
 -0.028138 -0.028138  0.112554     16.000000
 -0.042208 -0.042208  0.126623     16.000000
  0.112554  0.112554 -0.028138     16.000000
  0.098485  0.098485 -0.014069     16.000000
  0.084415  0.084415  0.000000      8.000000
  0.000000 -0.000000  0.112554      4.000000
 -0.014069 -0.014069  0.126623     16.000000
 -0.028138 -0.028138  0.140692     16.000000
  0.126623  0.126623 -0.014069     16.000000
  0.112554  0.112554 -0.000000      8.000000
  0.000000  0.000000  0.140692      4.000000
 -0.014069 -0.014069  0.154762     16.000000
  0.140692  0.140692 -0.000000      8.000000
  0.000000  0.000000  0.168831      2.000000
 -0.028138  0.000000  0.000000      2.000000
 -0.042208 -0.014069  0.014069      8.000000
 -0.056277 -0.028138  0.028138      8.000000
 -0.070346 -0.042208  0.042208      8.000000
 -0.084415 -0.056277  0.056277      8.000000
 -0.098485 -0.070346  0.070346      8.000000
  0.056277  0.084415 -0.084415      8.000000
  0.042208  0.070346 -0.070346      8.000000
  0.028138  0.056277 -0.056277      8.000000
  0.014069  0.042208 -0.042208      8.000000
  0.000000  0.028138 -0.028138      4.000000
 -0.028138  0.000000  0.056277      8.000000
 -0.042208 -0.014069  0.070346     16.000000
 -0.056277 -0.028138  0.084415     16.000000
 -0.070346 -0.042208  0.098485     16.000000
  0.084415  0.112554 -0.056277      8.000000
  0.000000  0.028138  0.056277      8.000000
[...]
 -0.112554 -0.028138  0.000000      8.000000
 -0.112554 -0.000000  0.000000      2.000000
 -0.126623 -0.014069  0.014069      8.000000
 -0.140692 -0.028138  0.028138      8.000000
  0.014069  0.126623 -0.126623      8.000000
  0.000000  0.112554 -0.112554      4.000000
 -0.168831 -0.056277 -0.028138      8.000000
 -0.154762 -0.042208 -0.014069     16.000000
 -0.168831 -0.056277 -0.000000      4.000000
 -0.140692 -0.028138  0.000000      8.000000
 -0.140692 -0.000000  0.000000      2.000000
 -0.154762 -0.014069  0.014069      8.000000
 -0.000000  0.140692 -0.140692      4.000000
 -0.168831 -0.028138 -0.000000      4.000000
 -0.168831  0.000000  0.000000      1.000000

 Subroutine IBZKPT_HF returns following result:

 Found   1728 k-points in 1st BZ
 the following   1728 k-points will be used (e.g. in the exchange kernel)
 Following reciprocal coordinates:   # in IRBZ
  0.000000  0.000000  0.000000    0.00057870   1 t-inv F
  0.083333 -0.000000 -0.000000    0.00057870   2 t-inv F
  0.166667 -0.000000 -0.000000    0.00057870   3 t-inv F
  0.250000  0.000000  0.000000    0.00057870   4 t-inv F
  0.333333 -0.000000 -0.000000    0.00057870   5 t-inv F
  0.416667 -0.000000 -0.000000    0.00057870   6 t-inv F
  0.500000  0.000000  0.000000    0.00057870   7 t-inv F
  0.083333  0.083333 -0.000000    0.00057870   8 t-inv F
  0.166667  0.083333  0.000000    0.00057870   9 t-inv F
  0.250000  0.083333 -0.000000    0.00057870  10 t-inv F
  0.333333  0.083333 -0.000000    0.00057870  11 t-inv F
  0.416667  0.083333 -0.000000    0.00057870  12 t-inv F
  0.500000  0.083333 -0.000000    0.00057870  13 t-inv F
 -0.416667  0.083333 -0.000000    0.00057870  14 t-inv F
[...]
      8       3.6257      0.00000
      9       9.2511      0.00000
     10       9.2511      0.00000
     11       9.2511      0.00000
     12      11.4251      0.00000
     13      11.4251      0.00000
     14      12.3807      0.00000
     15      14.1997      0.00000
     16      14.1997      0.00000

[...]

 soft charge-density along one line, spin component           1
         0         1         2         3         4         5         6         7         8         9
 total charge-density along one line

------------------------ aborting loop because EDIFF is reached ----------------------------------------

  FORCE on cell =-STRESS in cart. coord.  units (eV):
  Direction    XX          YY          ZZ          XY          YZ          ZX
  Alpha Z    29.30763    29.30763    29.30763
  Ewald    -225.32948  -225.32948  -225.32948    -0.00000    -0.00000    -0.00000
  Hartree    92.72973    92.72973    92.72973    -0.00000     0.00000    -0.00000
  E(xc)     -64.51170   -64.51170   -64.51170    -0.00002     0.00002    -0.00002
  Local     -45.25539   -45.25539   -45.25539     0.00004    -0.00004     0.00004
  n-local    28.27084    28.61611    27.92557    -0.84896     0.10512     0.34478
  augment    36.08730    36.08730    36.08730    -0.00005     0.00005    -0.00005
  Kinetic   149.10986   150.25436   147.96536    -2.73611     0.36490     1.03852
  Fock        0.00000     0.00000     0.00000     0.00000     0.00000     0.00000
  Total       0.40879     0.40879     0.40879     0.00000     0.00000     0.00000
  in kB      12.60738    12.60737    12.60737     0.00000     0.00000     0.00000

 VOLUME and BASIS-vectors are now :
  energy-cutoff  :      520.00
  volume of cell :       51.95
      direct lattice vectors                 reciprocal lattice vectors
    -2.961542026  0.000000000  2.961542026    -0.168830966 -0.168830966  0.168830966
     0.000000000  2.961542026  2.961542026     0.168830966  0.168830966  0.168830966
    -2.961542026  2.961542026  0.000000000    -0.168830966  0.168830966 -0.168830966

  length of vectors
     4.188252899  4.188252899  4.188252899     0.292423810  0.292423810  0.292423810

 FORCES acting on ions
    electron-ion (+dipol)            ewald-force                    non-local-force                 convergence-correction
   -.137E-04 -.922E-12 -.908E-12   0.129E-04 0.541E-15 -.610E-14   0.133E-05 0.276E-23 0.161E-23   -.297E-06 -.172E-10 -.172E-10
   0.128E-04 0.185E-11 0.269E-11   -.129E-04 -.101E-14 0.625E-14   -.127E-06 0.213E-23 -.115E-23   -.494E-07 -.236E-11 -.236E-11
   -.901E-06 0.931E-12 0.178E-11   0.611E-16 -.465E-15 0.150E-15   0.120E-05 0.489E-23 0.456E-24   -.347E-06 -.195E-10 -.196E-10

 POSITION                                       TOTAL-FORCE (eV/Angst)
      0.00000      0.00000      0.00000         0.000000      0.000000      0.000000
     -2.96154      2.96154      2.96154        -0.000000     -0.000000     -0.000000
    total drift:                               -0.000000     -0.000000     -0.000000

  FREE ENERGIE OF THE ION-ELECTRON SYSTEM (eV)
  free  energy   TOTEN  =        -6.10890882 eV

  energy  without entropy=       -6.10890882  energy(sigma->0) =       -6.10890882

 Found     4 degrees of freedom:

     directions for atom     1:  y
     directions for atom     2:  y
 Linear response reoptimize wavefunctions
 Linear response to external field (no local field effect), progress :
  Direction:   1
  LATTYP: Found a face centered cubic cell.
 ALAT       =     5.9230840528

[...]

----------------------------------------- Iteration    1(   1)  ---------------------------------------

 Free energy of the ion-electron system (eV)
  -Hartree energ DENC   =         0.00000000
  -V(xc)+E(xc)   XCENC  =         0.00000000
  PAW double counting   =         0.00000000        0.00000000
  entropy T*S    EENTRO =         0.00000000
  eigenvalues    EBANDS =        -0.28051092
  free energy    TOTEN  =        -0.28051092 eV

  energy without entropy =       -0.28051092

[...]

 change of polarisation eV/A/(eV/A) component  1 :     0.621    -0.146     0.051
 dielectric tensor                  component  1 :     3.164    -0.508     0.178

 Linear response to external field (no local field effect), progress :
  Direction:   2
  LATTYP: Found a face centered cubic cell.
 ALAT       =     5.9230840528

[...]

The dynamic configuration has the point symmetry C_1h.

[...]

 Linear response to external field (no local field effect), progress :
  Direction:   3
  LATTYP: Found a face centered cubic cell.
 ALAT       =     5.9230840528

[...]

 HEAD OF MICROSCOPIC STATIC DIELECTRIC TENSOR (INDEPENDENT PARTICLE, excluding Hartree and local field effects)
           3.163775    -0.000000     0.000000
          -0.000000     3.163746    -0.000000
           0.000000    -0.000000     3.163746

 Linear response to external field, progress :
  Direction:   1
  LATTYP: Found a face centered cubic cell.
 ALAT       =     5.9230840528

[...]

 PIEZOELECTRIC TENSOR FIELD DIRECTION 1  (e Angst)
     0.00006  0.00000 -0.00000           ( -0.00000  0.00000  0.00000)
     0.00000  0.00008 -0.00000           ( -0.00000  0.00000 -0.00000)
    -0.00000 -0.00000  0.00008           (  0.00000 -0.00000  0.00000)

 PIEZOELECTRIC TENSOR FIELD DIRECTION 1  (C/m^2)
     0.00002  0.00000 -0.00000
     0.00000  0.00002 -0.00000
    -0.00000 -0.00000  0.00002

      POSITION         DIRECTION 1           BORN EFFECTIVE CHARGE    (rigid.aug.   ionic)
      0.00000      0.00000      0.00000     1.12411 -0.00000 -0.00000 ( -4.47644  7.00000)
     -2.96154      2.96154      2.96154    -1.12414 -0.00000 -0.00000 (  1.38526  7.00000)
    total drift (improves with k-points):  -0.00003 -0.00000 -0.00000

[...]

 Linear response to external field, progress :
  Direction:   3
  LATTYP: Found a face centered cubic cell.
 ALAT       =     5.9230840528

[...]

 change of polarisation eV/A/(eV/A) component  3 :    -0.000     0.003     0.542
 dielectric tensor                  component  3 :    -0.000     0.012     2.888

 PIEZOELECTRIC TENSOR FIELD DIRECTION 3  (e Angst)
    -0.00001 -0.00000 -0.00006           ( -0.00000 -0.00000  0.00000)
    -0.00000 -0.00004 -0.00000           ( -0.00000 -0.00000 -0.00000)
    -0.00006 -0.00000 -0.00000           (  0.00000 -0.00000 -0.00000)

 PIEZOELECTRIC TENSOR FIELD DIRECTION 3  (C/m^2)
    -0.00000 -0.00000 -0.00002
    -0.00000 -0.00001 -0.00000
    -0.00002 -0.00000 -0.00000

      POSITION         DIRECTION 3           BORN EFFECTIVE CHARGE    (rigid.aug.   ionic)
      0.00000      0.00000      0.00000    -0.00013 -0.00000  1.12412 ( -4.47644  7.00000)
     -2.96154      2.96154      2.96154     0.00002 -0.00000 -1.12417 (  1.38526  7.00000)
    total drift (improves with k-points):  -0.00012 -0.00000 -0.00005

[...]

 MACROSCOPIC STATIC DIELECTRIC TENSOR (including local field effects in DFT)
           2.887988    -0.000000     0.000000
          -0.000000     2.887940    -0.000000
           0.000000    -0.000000     2.887940

 Linear response:
   Degrees of freedom DOF   =            4
 Linear response progress:
  Degree of freedom:   1/  4
  LATTYP: Found a face centered cubic cell.
 ALAT       =     5.9230840528

[...]

 INTERNAL STRAIN TENSOR  FOR ION    1  DIRECTION 1   (eV/Angst):
     0.00112  0.00000  0.00000
     0.00000 -0.00056 -0.00000
    -0.00000 -0.00000 -0.00056

 POSITION                   FORCE-CONSTANT FOR ION    1 DIRECTION 1 (eV/Angst/Angst)
      0.00000      0.00000      0.00000        -1.342706     -0.000000     -0.000000
     -2.96154      2.96154      2.96154         1.342706      0.000000      0.000000
    total drift:                                0.000000     -0.000000      0.000000

 BORN EFFECTIVE CHARGE FOR ION    1 DIRECTION 1 :   1.124  -0.000   0.000
                   rigid augmentation           :  -4.476  -0.000   0.000
                   ionic contribution           :   7.000  -0.000   0.000
                   Berry contribution           :  -1.399   0.000  -0.000

 Linear response progress:
  Degree of freedom:   2/  4
  LATTYP: Found a face centered cubic cell.
 ALAT       =     5.9230840528

[...]

 Linear response progress:
  Degree of freedom:   4/  4
  LATTYP: Found a face centered cubic cell.
 ALAT       =     5.9230840528

[...]

The dynamic configuration has the point symmetry C_1h.

[...]

----------------------------------------- Iteration    8(  11)  ---------------------------------------

 Broyden mixing:
  rms(total) = 0.60584E-05    rms(broyden)= 0.60578E-05
  rms(prec ) = 0.63832E-05
  weight for this iteration     100.00

 eigenvalues of (default mixing * dielectric matrix)
  average eigenvalue GAMMA=   1.7198
  3.0847  2.7561  2.4802  2.3821  1.6082  1.0743  0.9927  0.9555  0.1448

 Free energy of the ion-electron system (eV)
  -Hartree energ DENC   =        -0.07160796
  -V(xc)+E(xc)   XCENC  =         0.00032009
  PAW double counting   =         0.00001038       -0.00001062
  entropy T*S    EENTRO =        -0.00000000
  eigenvalues    EBANDS =        -0.07050111
  free energy    TOTEN  =        -0.14178922 eV

  energy without entropy =       -0.14178922

[...]

 k-point 476 :      -0.0000   -0.5000   -0.5000
  band No.  band energies     occupation
      1      -0.0001      0.00000
      2      -0.0001      0.00000
      3      -0.0001      0.00000
      4       0.0002      0.00000
      5       0.0002      0.00000
      6       0.0002      0.00000
      7       0.0002      0.00000
      8       0.0000      0.00000
      9       0.0000      0.00000
     10       0.0002      0.00000
     11       0.0001      0.00000
     12       0.0001      0.00000
     13       0.0001      0.00000
     14       0.0001      0.00000
     15       0.0001      0.00000
     16       0.0001      0.00000

------------------------ aborting loop because EDIFF is reached ----------------------------------------

 INTERNAL STRAIN TENSOR  FOR ION    2  DIRECTION 2   (eV/Angst):
     0.00140  0.00050  0.00000
     0.00050  0.00079  0.00000
     0.00000  0.00000  0.00018

 POSITION                   FORCE-CONSTANT FOR ION    2 DIRECTION 2 (eV/Angst/Angst)
      0.00000      0.00000      0.00000        -0.000014      1.318822      0.000000
     -2.96154      2.96154      2.96154         0.000014     -1.318822     -0.000000
    total drift:                                0.000000      0.000000      0.000000

 BORN EFFECTIVE CHARGE FOR ION    2 DIRECTION 2 :  -0.000  -1.124   0.000
                   rigid augmentation           :  -0.000   1.385  -0.000
                   ionic contribution           :  -0.000   7.000  -0.000
                   Berry contribution           :  -0.000  -9.509   0.000

  LATTYP: Found a face centered cubic cell.
 ALAT       =     5.9230840528

  Lattice vectors:

 A1 = (  -2.9615420264,   0.0000000000,   2.9615420264)
 A2 = (   0.0000000000,   2.9615420264,   2.9615420264)
 A3 = (  -2.9615420264,   2.9615420264,   0.0000000000)

Analysis of symmetry for initial positions (statically):
 Subroutine PRICEL returns:
 Original cell was already a primitive cell.

[...]

The static configuration has the point symmetry C_4v.

Analysis of symmetry for dynamics (positions and initial velocities):
 Subroutine PRICEL returns:
 Original cell was already a primitive cell.

 Routine SETGRP: Setting up the symmetry group for a
 face centered cubic supercell.

 Subroutine GETGRP returns: Found  8 space group operations
 (whereof  8 operations were pure point group operations)
 out of a pool of 48 trial point group operations.

The dynamic configuration has the point symmetry C_4v.

 Subroutine INISYM returns: Found  8 space group operations
 (whereof  8 operations are pure point group operations),
 and found     1 'primitive' translations

 MACROSCOPIC STATIC DIELECTRIC TENSOR (including local field effects in DFT)
           2.887988    -0.000000     0.000000
          -0.000000     2.887940    -0.000000
           0.000000    -0.000000     2.887940

 PIEZOELECTRIC TENSOR  for field in x, y, z        (e  Angst)
          XX          YY          ZZ          XY          YZ          ZX
  x     0.00006     0.00008     0.00008     0.00000    -0.00000    -0.00000
  y    -0.00012    -0.00000    -0.00006     0.00008     0.00000    -0.00000
  z    -0.00001    -0.00004    -0.00000    -0.00000    -0.00000    -0.00006

 PIEZOELECTRIC TENSOR  for field in x, y, z        (C/m^2)
          XX          YY          ZZ          XY          YZ          ZX
  x     0.00002     0.00002     0.00002    -0.00000    -0.00000     0.00000
  y     0.00000    -0.00000     0.00000     0.00000     0.00000    -0.00000
  z     0.00000     0.00000     0.00000    -0.00000    -0.00000     0.00000

 BORN EFFECTIVE CHARGES (in e, cummulative output)
 ion    1
    1     1.12413     0.00000     0.00000
    2     0.00005     1.12414     0.00000
    3    -0.00007     0.00000     1.12414
 ion    2
    1    -1.12413    -0.00000    -0.00000
    2    -0.00005    -1.12414    -0.00000
    3     0.00007    -0.00000    -1.12414

 INTERNAL STRAIN TENSOR FOR ION    1 for displacements in x,y,z  (eV/Angst):
          X           Y           Z          XY          YZ          ZX
  x     0.00112    -0.00056    -0.00056     0.00000     0.00000    -0.00000
  y     0.00000     0.00000     0.00000    -0.00128    -0.00000     0.00000
  z    -0.00000    -0.00000     0.00000     0.00000     0.00000    -0.00123

 INTERNAL STRAIN TENSOR FOR ION    2 for displacements in x,y,z  (eV/Angst):
          X           Y           Z          XY          YZ          ZX
  x    -0.00157    -0.00031    -0.00031     0.00000     0.00000    -0.00000
  y     0.00000     0.00000     0.00000     0.00050     0.00000    -0.00000
  z     0.00000     0.00000     0.00000    -0.00000    -0.00000     0.00050

 SECOND DERIVATIVES (NOT SYMMETRIZED)
               1X          1Y          1Z          2X          2Y          2Z
  1X    -1.342706    0.000000   -0.000000    1.342706   -0.000000    0.000000
  1Y     0.000000   -1.342748    0.000000   -0.000000    1.342748   -0.000000
  1Z    -0.000000    0.000000   -1.342748    0.000000   -0.000000    1.342748
  2X     1.318810   -0.000000    0.000000   -1.318810    0.000000   -0.000000
  2Y    -0.000000    1.318822   -0.000000    0.000000   -1.318822    0.000000
  2Z     0.000000   -0.000000    1.318822   -0.000000    0.000000   -1.318822

 Eigenvectors and eigenvalues of the dynamical matrix

   1 f  =    4.278840 THz    26.884746 2PiTHz  142.726740 cm-1    17.695867 meV
             X         Y         Z           dx          dy          dz
      0.000000  0.000000  0.000000     0.000000   -0.000000    0.882985
     -2.961542  2.961542  2.961542    -0.000000    0.000000   -0.469401

[...]

   3 f  =    4.278783 THz    26.884389 2PiTHz  142.724845 cm-1    17.695632 meV
             X         Y         Z           dx          dy          dz
      0.000000  0.000000  0.000000    -0.882983    0.000000    0.000000
     -2.961542  2.961542  2.961542     0.469405   -0.000000   -0.000000

   4 f/i=    0.015923 THz     0.100049 2PiTHz    0.531143 cm-1     0.065853 meV
             X         Y         Z           dx          dy          dz
      0.000000  0.000000  0.000000     0.469405   -0.000000   -0.000000
     -2.961542  2.961542  2.961542     0.882983   -0.000000   -0.000000

[...]

   6 f/i=    0.015943 THz     0.100170 2PiTHz    0.531788 cm-1     0.065933 meV
             X         Y         Z           dx          dy          dz
      0.000000  0.000000  0.000000    -0.000000   -0.053898    0.466297
     -2.961542  2.961542  2.961542    -0.000000   -0.101387    0.877145

 MACROSCOPIC STATIC DIELECTRIC TENSOR IONIC CONTRIBUTION
           3.307487     0.000139    -0.000218
           0.000139     3.307464    -0.000000
          -0.000218    -0.000000     3.307488

 ELASTIC MODULI IONIC CONTR (kBar)
 Direction    XX          YY          ZZ          XY          YZ          ZX
 XX          -0.0000      0.0000      0.0000     -0.0000     -0.0000      0.0000
 YY           0.0000     -0.0000     -0.0000      0.0000      0.0000     -0.0000
 ZZ           0.0000     -0.0000     -0.0000      0.0000      0.0000     -0.0000
 XY          -0.0000      0.0000      0.0000     -0.0000     -0.0000      0.0000
 YZ          -0.0000      0.0000      0.0000     -0.0000     -0.0000      0.0000
 ZX           0.0000     -0.0000     -0.0000      0.0000      0.0000     -0.0000

 PIEZOELECTRIC TENSOR IONIC CONTR  for field in x, y, z        (C/m^2)
          XX          YY          ZZ          XY          YZ          ZX
  x     0.00035    -0.00003    -0.00003     0.00000     0.00000    -0.00000
  y     0.00000    -0.00000    -0.00000    -0.00023    -0.00000    -0.00000
  z    -0.00000     0.00000     0.00000     0.00000     0.00000    -0.00023