 vasp.5.4.4.18Apr17-6-g9f103f2a35 (build Aug 24 2017 11:22:49) complex

 executed on             LinuxIFC date 2023.12.25  13:07:24

 INCAR:
 POTCAR:    PAW_PBE Ca_sv 06Sep2000
 POTCAR:    PAW_PBE S 06Sep2000

 POTCAR:    PAW_PBE Ca_sv 06Sep2000
   VRHFIN =Ca: 3s3p4s

   TITEL  = PAW_PBE Ca_sv 06Sep2000
   POMASS =   40.078; ZVAL   =   10.000    mass and valenz
   ENMAX  =  266.622; ENMIN  =  199.967 eV

 POTCAR:    PAW_PBE S 06Sep2000
   VRHFIN =S : s2p4

   TITEL  = PAW_PBE S 06Sep2000
   POMASS =   32.066; ZVAL   =    6.000    mass and valenz
   ENMAX  =  258.689; ENMIN  =  194.016 eV

  PAW_PBE Ca_sv 06Sep2000               :
  PAW_PBE S 06Sep2000                   :

 POSCAR: Ca1 S1
  positions in direct lattice
 exchange correlation table for  LEXCH =        8
   RHO(1)=    0.500       N(1)  =     2000
   RHO(2)=  100.500       N(2)  =     4000

 ion  position               nearest neighbor table
   1  0.000  0.000  0.000-   2 2.85   2 2.85   2 2.85   2 2.85   2 2.85   2 2.85
   2  0.500  0.500  0.500-   1 2.85   1 2.85   1 2.85   1 2.85   1 2.85   1 2.85

  LATTYP: Found a face centered cubic cell.
 ALAT       =     5.7047481452

  Lattice vectors:

 A1 = (  -2.8523740726,   0.0000000000,   2.8523740726)
 A2 = (   0.0000000000,   2.8523740726,   2.8523740726)
 A3 = (  -2.8523740726,   2.8523740726,   0.0000000000)

Analysis of symmetry for initial positions (statically):
 Subroutine PRICEL returns:
 Original cell was already a primitive cell.

 Routine SETGRP: Setting up the symmetry group for a
 face centered cubic supercell.

 Subroutine GETGRP returns: Found  8 space group operations
 (whereof  8 operations were pure point group operations)
 out of a pool of 48 trial point group operations.

The static configuration has the point symmetry C_4v.

Analysis of symmetry for dynamics (positions and initial velocities):
 Subroutine PRICEL returns:
 Original cell was already a primitive cell.

[...]

The dynamic configuration has the point symmetry C_4v.

 Subroutine INISYM returns: Found  8 space group operations
 (whereof  8 operations are pure point group operations),
 and found     1 'primitive' translations

 KPOINTS: pymatgen with grid density = 3000 / numb

Automatic generation of k-mesh.
Space group operators:
 irot       det(A)        alpha          n_x          n_y          n_z        tau_x        tau_y        tau_z
    1     1.000000     0.000000     1.000000     0.000000     0.000000     0.000000     0.000000     0.000000
    2     1.000000    90.000000    -1.000000    -0.000000     0.000000     0.000000     0.000000     0.000000
    3    -1.000000   180.000000     0.000000    -0.000000     1.000000     0.000000     0.000000     0.000000
    4    -1.000000   180.000000     0.000000     0.707107     0.707107     0.000000     0.000000     0.000000
    5    -1.000000   180.000000     0.000000    -1.000000     0.000000     0.000000     0.000000     0.000000
    6     1.000000    90.000000     1.000000     0.000000    -0.000000     0.000000     0.000000     0.000000
    7     1.000000   180.000000     1.000000     0.000000     0.000000     0.000000     0.000000     0.000000
    8    -1.000000   180.000000    -0.000000    -0.707107     0.707107     0.000000     0.000000     0.000000

 Subroutine IBZKPT returns following result:

 Found    163 irreducible k-points:

 Following reciprocal coordinates:
            Coordinates               Weight
  0.000000  0.000000  0.000000      1.000000
  0.083333  0.000000  0.000000      8.000000
  0.166667  0.000000  0.000000      8.000000
  0.250000 -0.000000 -0.000000      8.000000
  0.333333 -0.000000 -0.000000      8.000000
  0.416667  0.000000  0.000000      8.000000
  0.500000 -0.000000 -0.000000      4.000000
  0.083333  0.083333  0.000000      4.000000
  0.166667  0.083333  0.000000     16.000000
  0.250000  0.083333  0.000000     16.000000
  0.333333  0.083333 -0.000000     16.000000
  0.416667  0.083333 -0.000000     16.000000
  0.500000  0.083333  0.000000     16.000000
 -0.416667  0.083333  0.000000     16.000000
 -0.333333  0.083333  0.000000     16.000000
 -0.250000  0.083333  0.000000     16.000000
 -0.166667  0.083333  0.000000     16.000000
 -0.083333  0.083333 -0.000000      8.000000
  0.166667  0.166667  0.000000      4.000000
  0.250000  0.166667  0.000000     16.000000
  0.333333  0.166667 -0.000000     16.000000
  0.416667  0.166667  0.000000     16.000000
  0.500000  0.166667  0.000000     16.000000
 -0.416667  0.166667 -0.000000     16.000000
 -0.333333  0.166667  0.000000     16.000000
 -0.250000  0.166667 -0.000000     16.000000
 -0.166667  0.166667 -0.000000      8.000000
  0.250000  0.250000  0.000000      4.000000
  0.333333  0.250000  0.000000     16.000000
  0.416667  0.250000  0.000000     16.000000
  0.500000  0.250000 -0.000000     16.000000
 -0.416667  0.250000 -0.000000     16.000000
 -0.333333  0.250000 -0.000000     16.000000
 -0.250000  0.250000  0.000000      8.000000
  0.333333  0.333333  0.000000      4.000000
  0.416667  0.333333  0.000000     16.000000
  0.500000  0.333333  0.000000     16.000000
 -0.416667  0.333333 -0.000000     16.000000
 -0.333333  0.333333  0.000000      8.000000
  0.416667  0.416667  0.000000      4.000000
  0.500000  0.416667  0.000000     16.000000
 -0.416667  0.416667 -0.000000      8.000000
  0.500000  0.500000  0.000000      2.000000
  0.083333  0.000000  0.083333      2.000000
  0.166667 -0.000000  0.083333      8.000000
  0.250000  0.000000  0.083333      8.000000
  0.333333  0.000000  0.083333      8.000000
  0.416667 -0.000000  0.083333      8.000000
  0.500000  0.000000  0.083333      8.000000
 -0.416667  0.000000  0.083333      8.000000
 -0.333333  0.000000  0.083333      8.000000
 -0.250000  0.000000  0.083333      8.000000
 -0.166667  0.000000  0.083333      8.000000
 -0.083333 -0.000000  0.083333      4.000000
  0.250000  0.166667  0.083333      8.000000
  0.333333  0.166667  0.083333     16.000000
  0.416667  0.166667  0.083333     16.000000
  0.500000  0.166667  0.083333     16.000000
 -0.416667  0.166667  0.083333      8.000000
  0.166667  0.250000  0.083333      8.000000
[...]
  0.333333 -0.083333  0.250000      8.000000
  0.333333  0.000000  0.333333      2.000000
  0.416667  0.000000  0.333333      8.000000
  0.500000  0.000000  0.333333      8.000000
 -0.416667 -0.000000  0.333333      8.000000
 -0.333333  0.000000  0.333333      4.000000
  0.416667 -0.250000  0.333333      8.000000
  0.416667 -0.166667  0.333333     16.000000
  0.500000 -0.166667  0.333333      4.000000
  0.416667 -0.083333  0.333333      8.000000
  0.416667  0.000000  0.416667      2.000000
  0.500000  0.000000  0.416667      8.000000
 -0.416667 -0.000000  0.416667      4.000000
  0.500000 -0.083333  0.416667      4.000000
  0.500000  0.000000  0.500000      1.000000

 Following cartesian coordinates:
            Coordinates               Weight
  0.000000  0.000000  0.000000      1.000000
 -0.014608 -0.014608  0.014608      8.000000
 -0.029215 -0.029215  0.029215      8.000000
 -0.043823 -0.043823  0.043823      8.000000
 -0.058431 -0.058431  0.058431      8.000000
 -0.073039 -0.073039  0.073039      8.000000
 -0.087646 -0.087646  0.087646      4.000000
 -0.000000  0.000000  0.029215      4.000000
 -0.014608 -0.014608  0.043823     16.000000
 -0.029215 -0.029215  0.058431     16.000000
 -0.043823 -0.043823  0.073039     16.000000
 -0.058431 -0.058431  0.087646     16.000000
 -0.073039 -0.073039  0.102254     16.000000
  0.087646  0.087646 -0.058431     16.000000
  0.073039  0.073039 -0.043823     16.000000
  0.058431  0.058431 -0.029215     16.000000
  0.043823  0.043823 -0.014608     16.000000
  0.029215  0.029215  0.000000      8.000000
  0.000000  0.000000  0.058431      4.000000
 -0.014608 -0.014608  0.073039     16.000000
 -0.029215 -0.029215  0.087646     16.000000
 -0.043823 -0.043823  0.102254     16.000000
 -0.058431 -0.058431  0.116862     16.000000
  0.102254  0.102254 -0.043823     16.000000
  0.087646  0.087646 -0.029215     16.000000
  0.073039  0.073039 -0.014608     16.000000
  0.058431  0.058431  0.000000      8.000000
  0.000000  0.000000  0.087646      4.000000
 -0.014608 -0.014608  0.102254     16.000000
 -0.029215 -0.029215  0.116862     16.000000
 -0.043823 -0.043823  0.131469     16.000000
  0.116862  0.116862 -0.029215     16.000000
  0.102254  0.102254 -0.014608     16.000000
  0.087646  0.087646  0.000000      8.000000
  0.000000  0.000000  0.116862      4.000000
 -0.014608 -0.014608  0.131469     16.000000
 -0.029215 -0.029215  0.146077     16.000000
  0.131469  0.131469 -0.014608     16.000000
  0.116862  0.116862 -0.000000      8.000000
 -0.000000 -0.000000  0.146077      4.000000
 -0.014608 -0.014608  0.160685     16.000000
  0.146077  0.146077  0.000000      8.000000
  0.000000  0.000000  0.175293      2.000000
 -0.029215  0.000000  0.000000      2.000000
 -0.043823 -0.014608  0.014608      8.000000
 -0.058431 -0.029215  0.029215      8.000000
 -0.073039 -0.043823  0.043823      8.000000
 -0.087646 -0.058431  0.058431      8.000000
 -0.102254 -0.073039  0.073039      8.000000
  0.058431  0.087646 -0.087646      8.000000
  0.043823  0.073039 -0.073039      8.000000
  0.029215  0.058431 -0.058431      8.000000
  0.014608  0.043823 -0.043823      8.000000
  0.000000  0.029215 -0.029215      4.000000
 -0.029215  0.000000  0.058431      8.000000
 -0.043823 -0.014608  0.073039     16.000000
 -0.058431 -0.029215  0.087646     16.000000
 -0.073039 -0.043823  0.102254     16.000000
  0.087646  0.116862 -0.058431      8.000000
  0.000000  0.029215  0.058431      8.000000
[...]
 -0.116862 -0.029215  0.000000      8.000000
 -0.116862 -0.000000  0.000000      2.000000
 -0.131469 -0.014608  0.014608      8.000000
 -0.146077 -0.029215  0.029215      8.000000
  0.014608  0.131469 -0.131469      8.000000
  0.000000  0.116862 -0.116862      4.000000
 -0.175293 -0.058431 -0.029215      8.000000
 -0.160685 -0.043823 -0.014608     16.000000
 -0.175293 -0.058431  0.000000      4.000000
 -0.146077 -0.029215  0.000000      8.000000
 -0.146077  0.000000  0.000000      2.000000
 -0.160685 -0.014608  0.014608      8.000000
  0.000000  0.146077 -0.146077      4.000000
 -0.175293 -0.029215  0.000000      4.000000
 -0.175293  0.000000  0.000000      1.000000

 Subroutine IBZKPT_HF returns following result:

 Found   1728 k-points in 1st BZ
 the following   1728 k-points will be used (e.g. in the exchange kernel)
 Following reciprocal coordinates:   # in IRBZ
  0.000000  0.000000  0.000000    0.00057870   1 t-inv F
  0.083333  0.000000  0.000000    0.00057870   2 t-inv F
  0.166667  0.000000  0.000000    0.00057870   3 t-inv F
  0.250000 -0.000000 -0.000000    0.00057870   4 t-inv F
  0.333333 -0.000000 -0.000000    0.00057870   5 t-inv F
  0.416667  0.000000  0.000000    0.00057870   6 t-inv F
  0.500000 -0.000000 -0.000000    0.00057870   7 t-inv F
  0.083333  0.083333  0.000000    0.00057870   8 t-inv F
  0.166667  0.083333  0.000000    0.00057870   9 t-inv F
  0.250000  0.083333  0.000000    0.00057870  10 t-inv F
  0.333333  0.083333 -0.000000    0.00057870  11 t-inv F
  0.416667  0.083333 -0.000000    0.00057870  12 t-inv F
[...]
      9       6.8075      0.00000
     10       6.8564      0.00000
     11       6.8564      0.00000
     12       6.8564      0.00000
     13       7.4471      0.00000
     14       7.4471      0.00000
     15      13.5458      0.00000
     16      15.7540      0.00000

[...]

 soft charge-density along one line, spin component           1
         0         1         2         3         4         5         6         7         8         9
 total charge-density along one line

------------------------ aborting loop because EDIFF is reached ----------------------------------------

  FORCE on cell =-STRESS in cart. coord.  units (eV):
  Direction    XX          YY          ZZ          XY          YZ          ZX
  Alpha Z    52.43478    52.43478    52.43478
  Ewald    -317.33493  -317.33493  -317.33493    -0.00000    -0.00000    -0.00000
  Hartree    88.49914    88.49914    88.49914    -0.00000     0.00000    -0.00000
  E(xc)     -65.50008   -65.50008   -65.50008    -0.00000     0.00000    -0.00000
  Local      -6.08559    -6.08559    -6.08559    -0.00001     0.00001    -0.00001
  n-local    34.83329    34.50601    35.16057     0.41956    -0.07123    -0.13402
  augment     9.27812     9.27812     9.27812     0.00001    -0.00001     0.00001
  Kinetic   203.98110   205.40872   202.55349    -5.61728     0.73990     2.01735
  Fock        0.00000     0.00000     0.00000     0.00000     0.00000     0.00000
  Total       0.10584     0.10584     0.10584    -0.00000     0.00000     0.00000
  in kB       3.65342     3.65342     3.65342    -0.00000     0.00000     0.00000

 VOLUME and BASIS-vectors are now :
  energy-cutoff  :      520.00
  volume of cell :       46.41
      direct lattice vectors                 reciprocal lattice vectors
    -2.852374073  0.000000000  2.852374073    -0.175292576 -0.175292576  0.175292576
     0.000000000  2.852374073  2.852374073     0.175292576  0.175292576  0.175292576
    -2.852374073  2.852374073  0.000000000    -0.175292576  0.175292576 -0.175292576

  length of vectors
     4.033866098  4.033866098  4.033866098     0.303615648  0.303615648  0.303615648

 FORCES acting on ions
    electron-ion (+dipol)            ewald-force                    non-local-force                 convergence-correction
   -.179E-04 -.172E-13 0.260E-14   0.171E-04 0.136E-14 -.168E-14   0.132E-05 0.185E-22 -.169E-23   0.233E-06 0.230E-11 0.231E-11
   0.181E-04 0.474E-11 0.478E-11   -.171E-04 -.115E-14 0.194E-14   -.162E-05 0.185E-23 0.112E-22   -.102E-06 0.139E-11 0.139E-11
   0.205E-06 0.472E-11 0.478E-11   -.208E-15 0.212E-15 0.265E-15   -.301E-06 0.204E-22 0.955E-23   0.131E-06 0.369E-11 0.370E-11

 POSITION                                       TOTAL-FORCE (eV/Angst)
      0.00000      0.00000      0.00000         0.000001      0.000000     -0.000000
     -2.85237      2.85237      2.85237        -0.000001     -0.000000      0.000000
    total drift:                                0.000000      0.000000      0.000000

  FREE ENERGIE OF THE ION-ELECTRON SYSTEM (eV)
  free  energy   TOTEN  =       -10.36472761 eV

  energy  without entropy=      -10.36472761  energy(sigma->0) =      -10.36472761

 Found     4 degrees of freedom:

     directions for atom     1:  y
     directions for atom     2:  y
 Linear response reoptimize wavefunctions
 Linear response to external field (no local field effect), progress :
  Direction:   1
  LATTYP: Found a face centered cubic cell.
 ALAT       =     5.7047481452

[...]

----------------------------------------- Iteration    1(   1)  ---------------------------------------

 Free energy of the ion-electron system (eV)
  -Hartree energ DENC   =         0.00000000
  -V(xc)+E(xc)   XCENC  =         0.00000000
  PAW double counting   =         0.00000000        0.00000000
  entropy T*S    EENTRO =         0.00000000
  eigenvalues    EBANDS =        -0.54209625
  free energy    TOTEN  =        -0.54209625 eV

  energy without entropy =       -0.54209625

[...]

 change of polarisation eV/A/(eV/A) component  1 :     1.144    -0.253     0.064
 dielectric tensor                  component  1 :     5.459    -0.987     0.248

 Linear response to external field (no local field effect), progress :
  Direction:   2
  LATTYP: Found a face centered cubic cell.
 ALAT       =     5.7047481452

[...]

The dynamic configuration has the point symmetry C_1h.

[...]

 Linear response to external field (no local field effect), progress :
  Direction:   3
  LATTYP: Found a face centered cubic cell.
 ALAT       =     5.7047481452

[...]

 HEAD OF MICROSCOPIC STATIC DIELECTRIC TENSOR (INDEPENDENT PARTICLE, excluding Hartree and local field effects)
           5.459321     0.000000    -0.000000
          -0.000000     5.459532     0.000000
           0.000000     0.000000     5.459532

 Linear response to external field, progress :
  Direction:   1
  LATTYP: Found a face centered cubic cell.
 ALAT       =     5.7047481452

[...]

 PIEZOELECTRIC TENSOR FIELD DIRECTION 1  (e Angst)
     0.00017 -0.00000  0.00000           ( -0.00000  0.00000  0.00000)
     0.00000  0.00006  0.00000           (  0.00000  0.00000  0.00000)
     0.00000  0.00000  0.00006           (  0.00000  0.00000  0.00000)

 PIEZOELECTRIC TENSOR FIELD DIRECTION 1  (C/m^2)
     0.00006 -0.00000  0.00000
     0.00000  0.00002  0.00000
     0.00000  0.00000  0.00002

      POSITION         DIRECTION 1           BORN EFFECTIVE CHARGE    (rigid.aug.   ionic)
      0.00000      0.00000      0.00000     2.36547 -0.00000 -0.00000 ( -2.64884 10.00000)
     -2.85237      2.85237      2.85237    -2.36551 -0.00000 -0.00000 (  0.81566  6.00000)
    total drift (improves with k-points):  -0.00004 -0.00000 -0.00000

[...]

 Linear response to external field, progress :
  Direction:   3
  LATTYP: Found a face centered cubic cell.
 ALAT       =     5.7047481452

[...]

 change of polarisation eV/A/(eV/A) component  3 :    -0.000     0.005     1.025
 dielectric tensor                  component  3 :    -0.000     0.020     4.998

 PIEZOELECTRIC TENSOR FIELD DIRECTION 3  (e Angst)
     0.00000 -0.00000 -0.00019           ( -0.00000 -0.00000  0.00000)
     0.00000 -0.00003  0.00000           (  0.00000 -0.00000  0.00000)
    -0.00019  0.00000  0.00002           (  0.00000  0.00000 -0.00000)

 PIEZOELECTRIC TENSOR FIELD DIRECTION 3  (C/m^2)
     0.00000 -0.00000 -0.00007
     0.00000 -0.00001  0.00000
    -0.00007  0.00000  0.00001

      POSITION         DIRECTION 3           BORN EFFECTIVE CHARGE    (rigid.aug.   ionic)
      0.00000      0.00000      0.00000     0.00003 -0.00000  2.36546 ( -2.64884 10.00000)
     -2.85237      2.85237      2.85237    -0.00002 -0.00000 -2.36558 (  0.81566  6.00000)
    total drift (improves with k-points):   0.00001 -0.00000 -0.00013

[...]

 MACROSCOPIC STATIC DIELECTRIC TENSOR (including local field effects in DFT)
           4.997632    -0.000000     0.000000
          -0.000000     4.997899    -0.000000
           0.000000    -0.000000     4.997899

 Linear response:
   Degrees of freedom DOF   =            4
 Linear response progress:
  Degree of freedom:   1/  4
  LATTYP: Found a face centered cubic cell.
 ALAT       =     5.7047481452

[...]

 INTERNAL STRAIN TENSOR  FOR ION    1  DIRECTION 1   (eV/Angst):
     0.00181 -0.00000 -0.00000
    -0.00000 -0.00051 -0.00000
     0.00000 -0.00000 -0.00051

 POSITION                   FORCE-CONSTANT FOR ION    1 DIRECTION 1 (eV/Angst/Angst)
      0.00000      0.00000      0.00000        -3.130298      0.000000      0.000000
     -2.85237      2.85237      2.85237         3.130298     -0.000000     -0.000000
    total drift:                                0.000000      0.000000      0.000000

 BORN EFFECTIVE CHARGE FOR ION    1 DIRECTION 1 :   2.365  -0.000   0.000
                   rigid augmentation           :  -2.649  -0.000   0.000
                   ionic contribution           :  10.000  -0.000   0.000
                   Berry contribution           :  -4.986   0.000  -0.000

 Linear response progress:
  Degree of freedom:   2/  4
  LATTYP: Found a face centered cubic cell.
 ALAT       =     5.7047481452

[...]

 Linear response progress:
  Degree of freedom:   4/  4
  LATTYP: Found a face centered cubic cell.
 ALAT       =     5.7047481452

[...]

The dynamic configuration has the point symmetry C_1h.

[...]

----------------------------------------- Iteration    8(  15)  ---------------------------------------

 Broyden mixing:
  rms(total) = 0.84024E-05    rms(broyden)= 0.84024E-05
  rms(prec ) = 0.89247E-05
  weight for this iteration     100.00

 eigenvalues of (default mixing * dielectric matrix)
  average eigenvalue GAMMA=   1.7355
  3.3837  3.0394  2.7805  2.3503  2.3503  1.5876  1.4202  1.0924  0.9569  0.9396
  0.9396  0.8607  0.8607

 Free energy of the ion-electron system (eV)
  -Hartree energ DENC   =        -0.05788278
  -V(xc)+E(xc)   XCENC  =         0.00025618
  PAW double counting   =         0.00021668       -0.00021832
  entropy T*S    EENTRO =        -0.00000000
  eigenvalues    EBANDS =        -0.05215702
  free energy    TOTEN  =        -0.10978526 eV

  energy without entropy =       -0.10978526

[...]

 k-point 476 :       0.0000   -0.5000   -0.5000
  band No.  band energies     occupation
      1      -0.0001      0.00000
      2      -0.0001      0.00000
      3      -0.0001      0.00000
      4      -0.0001      0.00000
      5       0.0003      0.00000
      6       0.0002      0.00000
      7       0.0002      0.00000
      8       0.0002      0.00000
      9       0.0000      0.00000
     10      -0.0000      0.00000
     11       0.0000      0.00000
     12      -0.0001      0.00000
     13      -0.0001      0.00000
     14      -0.0001      0.00000
     15       0.0002      0.00000
     16      -0.0000      0.00000

------------------------ aborting loop because EDIFF is reached ----------------------------------------

 INTERNAL STRAIN TENSOR  FOR ION    2  DIRECTION 2   (eV/Angst):
     0.00107 -0.00078  0.00000
    -0.00077  0.00061  0.00000
     0.00000  0.00000  0.00010

 POSITION                   FORCE-CONSTANT FOR ION    2 DIRECTION 2 (eV/Angst/Angst)
      0.00000      0.00000      0.00000        -0.000016      3.132677      0.000000
     -2.85237      2.85237      2.85237         0.000016     -3.132677     -0.000000
    total drift:                                0.000000      0.000000      0.000000

 BORN EFFECTIVE CHARGE FOR ION    2 DIRECTION 2 :  -0.000  -2.366  -0.000
                   rigid augmentation           :  -0.000   0.816  -0.000
                   ionic contribution           :  -0.000   6.000  -0.000
                   Berry contribution           :  -0.000  -9.181   0.000

  LATTYP: Found a face centered cubic cell.
 ALAT       =     5.7047481452

  Lattice vectors:

 A1 = (  -2.8523740726,   0.0000000000,   2.8523740726)
 A2 = (   0.0000000000,   2.8523740726,   2.8523740726)
 A3 = (  -2.8523740726,   2.8523740726,   0.0000000000)

Analysis of symmetry for initial positions (statically):
 Subroutine PRICEL returns:
 Original cell was already a primitive cell.

[...]

The static configuration has the point symmetry C_4v.

Analysis of symmetry for dynamics (positions and initial velocities):
 Subroutine PRICEL returns:
 Original cell was already a primitive cell.

 Routine SETGRP: Setting up the symmetry group for a
 face centered cubic supercell.

 Subroutine GETGRP returns: Found  8 space group operations
 (whereof  8 operations were pure point group operations)
 out of a pool of 48 trial point group operations.

The dynamic configuration has the point symmetry C_4v.

 Subroutine INISYM returns: Found  8 space group operations
 (whereof  8 operations are pure point group operations),
 and found     1 'primitive' translations

 MACROSCOPIC STATIC DIELECTRIC TENSOR (including local field effects in DFT)
           4.997632    -0.000000     0.000000
          -0.000000     4.997899    -0.000000
           0.000000    -0.000000     4.997899

 PIEZOELECTRIC TENSOR  for field in x, y, z        (e  Angst)
          XX          YY          ZZ          XY          YZ          ZX
  x     0.00017     0.00006     0.00006     0.00000     0.00000     0.00000
  y    -0.00007     0.00005    -0.00011     0.00024     0.00000     0.00000
  z     0.00000    -0.00003     0.00002     0.00000     0.00000    -0.00019

 PIEZOELECTRIC TENSOR  for field in x, y, z        (C/m^2)
          XX          YY          ZZ          XY          YZ          ZX
  x     0.00006     0.00002     0.00002    -0.00000    -0.00000     0.00000
  y    -0.00000     0.00000     0.00000     0.00001     0.00000    -0.00000
  z     0.00000     0.00000     0.00000    -0.00000    -0.00000     0.00001

 BORN EFFECTIVE CHARGES (in e, cummulative output)
 ion    1
    1     2.36549     0.00000    -0.00000
    2    -0.00005     2.36557     0.00000
    3     0.00002    -0.00000     2.36552
 ion    2
    1    -2.36549    -0.00000     0.00000
    2     0.00005    -2.36557    -0.00000
    3    -0.00002     0.00000    -2.36552

 INTERNAL STRAIN TENSOR FOR ION    1 for displacements in x,y,z  (eV/Angst):
          X           Y           Z          XY          YZ          ZX
  x     0.00181    -0.00051    -0.00051    -0.00000     0.00000     0.00000
  y     0.00000     0.00000     0.00000    -0.00076    -0.00000     0.00000
  z     0.00000     0.00000     0.00000     0.00000     0.00000    -0.00075

 INTERNAL STRAIN TENSOR FOR ION    2 for displacements in x,y,z  (eV/Angst):
          X           Y           Z          XY          YZ          ZX
  x    -0.00172    -0.00038    -0.00038     0.00000     0.00000    -0.00000
  y     0.00000     0.00000     0.00000    -0.00077    -0.00000     0.00000
  z     0.00000     0.00000     0.00000     0.00000     0.00000    -0.00078

 SECOND DERIVATIVES (NOT SYMMETRIZED)
               1X          1Y          1Z          2X          2Y          2Z
  1X    -3.130298    0.000000   -0.000000    3.130298   -0.000000    0.000000
  1Y     0.000000   -3.131314    0.000000   -0.000000    3.131314   -0.000000
  1Z    -0.000000    0.000000   -3.131314    0.000000   -0.000000    3.131314
  2X     3.132686   -0.000000    0.000000   -3.132686    0.000000   -0.000000
  2Y    -0.000000    3.132677   -0.000000    0.000000   -3.132677    0.000000
  2Z     0.000000   -0.000000    3.132677   -0.000000    0.000000   -3.132677

 Eigenvectors and eigenvalues of the dynamical matrix

   1 f  =    6.555280 THz    41.188037 2PiTHz  218.660589 cm-1    27.110468 meV
             X         Y         Z           dx          dy          dz
      0.000000  0.000000  0.000000    -0.000000   -0.666607   -0.000000
     -2.852374  2.852374  2.852374     0.000000    0.745409    0.000000

[...]

   3 f  =    6.554813 THz    41.185102 2PiTHz  218.645004 cm-1    27.108535 meV
             X         Y         Z           dx          dy          dz
      0.000000  0.000000  0.000000    -0.666546    0.000000    0.000000
     -2.852374  2.852374  2.852374     0.745464   -0.000000    0.000000

   4 f/i=    0.000709 THz     0.004452 2PiTHz    0.023636 cm-1     0.002930 meV
             X         Y         Z           dx          dy          dz
      0.000000  0.000000  0.000000    -0.000000    0.745409    0.000000
     -2.852374  2.852374  2.852374    -0.000000    0.666607    0.000000

[...]

   6 f/i=    0.001242 THz     0.007804 2PiTHz    0.041429 cm-1     0.005137 meV
             X         Y         Z           dx          dy          dz
      0.000000  0.000000  0.000000     0.745464    0.000000   -0.000000
     -2.852374  2.852374  2.852374     0.666546    0.000000    0.000000

 MACROSCOPIC STATIC DIELECTRIC TENSOR IONIC CONTRIBUTION
           6.966403    -0.000143     0.000066
          -0.000143     6.965712    -0.000000
           0.000066    -0.000000     6.965441

 ELASTIC MODULI IONIC CONTR (kBar)
 Direction    XX          YY          ZZ          XY          YZ          ZX
 XX          -0.0000      0.0000      0.0000     -0.0000     -0.0000     -0.0000
 YY           0.0000     -0.0000     -0.0000      0.0000      0.0000      0.0000
 ZZ           0.0000     -0.0000     -0.0000      0.0000      0.0000      0.0000
 XY          -0.0000      0.0000      0.0000     -0.0000     -0.0000     -0.0000
 YZ          -0.0000      0.0000      0.0000     -0.0000     -0.0000      0.0000
 ZX          -0.0000      0.0000      0.0000     -0.0000      0.0000     -0.0000

 PIEZOELECTRIC TENSOR IONIC CONTR  for field in x, y, z        (C/m^2)
          XX          YY          ZZ          XY          YZ          ZX
  x     0.00046    -0.00002    -0.00002     0.00000     0.00000     0.00000
  y    -0.00000     0.00000     0.00000     0.00000     0.00000     0.00000
  z     0.00000    -0.00000    -0.00000     0.00000    -0.00000     0.00000