 vasp.5.4.4.18Apr17-6-g9f103f2a35 (build Aug 24 2017 11:22:49) complex

 executed on             LinuxIFC date 2023.12.25  13:07:49

 INCAR:
 POTCAR:    PAW_PBE K_sv 06Sep2000
 POTCAR:    PAW_PBE Br 06Sep2000

 POTCAR:    PAW_PBE K_sv 06Sep2000
   VRHFIN =K:  3s3p4s

   TITEL  = PAW_PBE K_sv 06Sep2000
   POMASS =   39.098; ZVAL   =    9.000    mass and valenz
   ENMAX  =  259.264; ENMIN  =  194.448 eV

 POTCAR:    PAW_PBE Br 06Sep2000
   VRHFIN =Br: s2p5

   TITEL  = PAW_PBE Br 06Sep2000
   POMASS =   79.904; ZVAL   =    7.000    mass and valenz
   ENMAX  =  216.285; ENMIN  =  162.214 eV

  PAW_PBE K_sv 06Sep2000                :
  PAW_PBE Br 06Sep2000                  :

 POSCAR: K1 Br1
  positions in direct lattice
 exchange correlation table for  LEXCH =        8
   RHO(1)=    0.500       N(1)  =     2000
   RHO(2)=  100.500       N(2)  =     4000

 ion  position               nearest neighbor table
   1  0.000  0.000  0.000-   2 3.29   2 3.29   2 3.29   2 3.29   2 3.29   2 3.29
   2  0.500  0.500  0.500-   1 3.29   1 3.29   1 3.29   1 3.29   1 3.29   1 3.29

  LATTYP: Found a face centered cubic cell.
 ALAT       =     6.5890814335

  Lattice vectors:

 A1 = (  -3.2945407167,   0.0000000000,   3.2945407167)
 A2 = (   0.0000000000,   3.2945407167,   3.2945407167)
 A3 = (  -3.2945407167,   3.2945407167,   0.0000000000)

Analysis of symmetry for initial positions (statically):
 Subroutine PRICEL returns:
 Original cell was already a primitive cell.

 Routine SETGRP: Setting up the symmetry group for a
 face centered cubic supercell.

 Subroutine GETGRP returns: Found  8 space group operations
 (whereof  8 operations were pure point group operations)
 out of a pool of 48 trial point group operations.

The static configuration has the point symmetry C_4v.

Analysis of symmetry for dynamics (positions and initial velocities):
 Subroutine PRICEL returns:
 Original cell was already a primitive cell.

[...]

The dynamic configuration has the point symmetry C_4v.

 Subroutine INISYM returns: Found  8 space group operations
 (whereof  8 operations are pure point group operations),
 and found     1 'primitive' translations

 KPOINTS: pymatgen with grid density = 3000 / numb

Automatic generation of k-mesh.
Space group operators:
 irot       det(A)        alpha          n_x          n_y          n_z        tau_x        tau_y        tau_z
    1     1.000000     0.000000     1.000000     0.000000     0.000000     0.000000     0.000000     0.000000
    2     1.000000    90.000000    -1.000000     0.000000    -0.000000     0.000000     0.000000     0.000000
    3    -1.000000   180.000000     0.000000     0.000000    -1.000000     0.000000     0.000000     0.000000
    4    -1.000000   180.000000    -0.000000     0.707107     0.707107     0.000000     0.000000     0.000000
    5    -1.000000   180.000000    -0.000000    -1.000000     0.000000     0.000000     0.000000     0.000000
    6     1.000000    90.000000     1.000000     0.000000     0.000000     0.000000     0.000000     0.000000
    7     1.000000   180.000000     1.000000     0.000000     0.000000     0.000000     0.000000     0.000000
    8    -1.000000   180.000000    -0.000000    -0.707107     0.707107     0.000000     0.000000     0.000000

 Subroutine IBZKPT returns following result:

 Found    163 irreducible k-points:

 Following reciprocal coordinates:
            Coordinates               Weight
  0.000000  0.000000  0.000000      1.000000
  0.083333 -0.000000 -0.000000      8.000000
  0.166667 -0.000000 -0.000000      8.000000
  0.250000 -0.000000 -0.000000      8.000000
  0.333333 -0.000000  0.000000      8.000000
  0.416667 -0.000000 -0.000000      8.000000
  0.500000 -0.000000 -0.000000      4.000000
  0.083333  0.083333 -0.000000      4.000000
  0.166667  0.083333 -0.000000     16.000000
  0.250000  0.083333 -0.000000     16.000000
  0.333333  0.083333 -0.000000     16.000000
  0.416667  0.083333 -0.000000     16.000000
  0.500000  0.083333 -0.000000     16.000000
 -0.416667  0.083333 -0.000000     16.000000
 -0.333333  0.083333 -0.000000     16.000000
 -0.250000  0.083333 -0.000000     16.000000
 -0.166667  0.083333 -0.000000     16.000000
 -0.083333  0.083333  0.000000      8.000000
  0.166667  0.166667 -0.000000      4.000000
  0.250000  0.166667 -0.000000     16.000000
  0.333333  0.166667  0.000000     16.000000
  0.416667  0.166667 -0.000000     16.000000
  0.500000  0.166667  0.000000     16.000000
 -0.416667  0.166667  0.000000     16.000000
 -0.333333  0.166667  0.000000     16.000000
 -0.250000  0.166667  0.000000     16.000000
 -0.166667  0.166667 -0.000000      8.000000
  0.250000  0.250000 -0.000000      4.000000
  0.333333  0.250000 -0.000000     16.000000
  0.416667  0.250000 -0.000000     16.000000
  0.500000  0.250000 -0.000000     16.000000
 -0.416667  0.250000 -0.000000     16.000000
 -0.333333  0.250000  0.000000     16.000000
 -0.250000  0.250000  0.000000      8.000000
  0.333333  0.333333 -0.000000      4.000000
  0.416667  0.333333 -0.000000     16.000000
  0.500000  0.333333 -0.000000     16.000000
 -0.416667  0.333333 -0.000000     16.000000
 -0.333333  0.333333 -0.000000      8.000000
  0.416667  0.416667 -0.000000      4.000000
  0.500000  0.416667 -0.000000     16.000000
 -0.416667  0.416667  0.000000      8.000000
  0.500000  0.500000 -0.000000      2.000000
  0.083333 -0.000000  0.083333      2.000000
  0.166667 -0.000000  0.083333      8.000000
  0.250000 -0.000000  0.083333      8.000000
  0.333333  0.000000  0.083333      8.000000
  0.416667 -0.000000  0.083333      8.000000
  0.500000 -0.000000  0.083333      8.000000
 -0.416667  0.000000  0.083333      8.000000
 -0.333333 -0.000000  0.083333      8.000000
 -0.250000 -0.000000  0.083333      8.000000
 -0.166667 -0.000000  0.083333      8.000000
 -0.083333  0.000000  0.083333      4.000000
  0.250000  0.166667  0.083333      8.000000
  0.333333  0.166667  0.083333     16.000000
  0.416667  0.166667  0.083333     16.000000
  0.500000  0.166667  0.083333     16.000000
 -0.416667  0.166667  0.083333      8.000000
  0.166667  0.250000  0.083333      8.000000
[...]
  0.333333 -0.083333  0.250000      8.000000
  0.333333 -0.000000  0.333333      2.000000
  0.416667 -0.000000  0.333333      8.000000
  0.500000 -0.000000  0.333333      8.000000
 -0.416667 -0.000000  0.333333      8.000000
 -0.333333  0.000000  0.333333      4.000000
  0.416667 -0.250000  0.333333      8.000000
  0.416667 -0.166667  0.333333     16.000000
  0.500000 -0.166667  0.333333      4.000000
  0.416667 -0.083333  0.333333      8.000000
  0.416667 -0.000000  0.416667      2.000000
  0.500000 -0.000000  0.416667      8.000000
 -0.416667  0.000000  0.416667      4.000000
  0.500000 -0.083333  0.416667      4.000000
  0.500000 -0.000000  0.500000      1.000000

 Following cartesian coordinates:
            Coordinates               Weight
  0.000000  0.000000  0.000000      1.000000
 -0.012647 -0.012647  0.012647      8.000000
 -0.025294 -0.025294  0.025294      8.000000
 -0.037942 -0.037942  0.037942      8.000000
 -0.050589 -0.050589  0.050589      8.000000
 -0.063236 -0.063236  0.063236      8.000000
 -0.075883 -0.075883  0.075883      4.000000
  0.000000  0.000000  0.025294      4.000000
 -0.012647 -0.012647  0.037942     16.000000
 -0.025294 -0.025294  0.050589     16.000000
 -0.037942 -0.037942  0.063236     16.000000
 -0.050589 -0.050589  0.075883     16.000000
 -0.063236 -0.063236  0.088530     16.000000
  0.075883  0.075883 -0.050589     16.000000
  0.063236  0.063236 -0.037942     16.000000
  0.050589  0.050589 -0.025294     16.000000
  0.037942  0.037942 -0.012647     16.000000
  0.025294  0.025294  0.000000      8.000000
  0.000000  0.000000  0.050589      4.000000
 -0.012647 -0.012647  0.063236     16.000000
 -0.025294 -0.025294  0.075883     16.000000
 -0.037942 -0.037942  0.088530     16.000000
 -0.050589 -0.050589  0.101177     16.000000
  0.088530  0.088530 -0.037942     16.000000
  0.075883  0.075883 -0.025294     16.000000
  0.063236  0.063236 -0.012647     16.000000
  0.050589  0.050589  0.000000      8.000000
  0.000000 -0.000000  0.075883      4.000000
 -0.012647 -0.012647  0.088530     16.000000
 -0.025294 -0.025294  0.101177     16.000000
 -0.037942 -0.037942  0.113825     16.000000
  0.101177  0.101177 -0.025294     16.000000
  0.088530  0.088530 -0.012647     16.000000
  0.075883  0.075883 -0.000000      8.000000
  0.000000  0.000000  0.101177      4.000000
 -0.012647 -0.012647  0.113825     16.000000
 -0.025294 -0.025294  0.126472     16.000000
  0.113825  0.113825 -0.012647     16.000000
  0.101177  0.101177  0.000000      8.000000
  0.000000  0.000000  0.126472      4.000000
 -0.012647 -0.012647  0.139119     16.000000
  0.126472  0.126472  0.000000      8.000000
  0.000000 -0.000000  0.151766      2.000000
 -0.025294  0.000000  0.000000      2.000000
 -0.037942 -0.012647  0.012647      8.000000
 -0.050589 -0.025294  0.025294      8.000000
 -0.063236 -0.037942  0.037942      8.000000
 -0.075883 -0.050589  0.050589      8.000000
 -0.088530 -0.063236  0.063236      8.000000
  0.050589  0.075883 -0.075883      8.000000
  0.037942  0.063236 -0.063236      8.000000
  0.025294  0.050589 -0.050589      8.000000
  0.012647  0.037942 -0.037942      8.000000
  0.000000  0.025294 -0.025294      4.000000
 -0.025294  0.000000  0.050589      8.000000
 -0.037942 -0.012647  0.063236     16.000000
 -0.050589 -0.025294  0.075883     16.000000
 -0.063236 -0.037942  0.088530     16.000000
  0.075883  0.101177 -0.050589      8.000000
 -0.000000  0.025294  0.050589      8.000000
[...]
 -0.101177 -0.025294  0.000000      8.000000
 -0.101177 -0.000000 -0.000000      2.000000
 -0.113825 -0.012647  0.012647      8.000000
 -0.126472 -0.025294  0.025294      8.000000
  0.012647  0.113825 -0.113825      8.000000
  0.000000  0.101177 -0.101177      4.000000
 -0.151766 -0.050589 -0.025294      8.000000
 -0.139119 -0.037942 -0.012647     16.000000
 -0.151766 -0.050589  0.000000      4.000000
 -0.126472 -0.025294  0.000000      8.000000
 -0.126472 -0.000000  0.000000      2.000000
 -0.139119 -0.012647  0.012647      8.000000
  0.000000  0.126472 -0.126472      4.000000
 -0.151766 -0.025294  0.000000      4.000000
 -0.151766  0.000000  0.000000      1.000000

 Subroutine IBZKPT_HF returns following result:

 Found   1728 k-points in 1st BZ
 the following   1728 k-points will be used (e.g. in the exchange kernel)
 Following reciprocal coordinates:   # in IRBZ
  0.000000  0.000000  0.000000    0.00057870   1 t-inv F
  0.083333 -0.000000 -0.000000    0.00057870   2 t-inv F
  0.166667 -0.000000 -0.000000    0.00057870   3 t-inv F
  0.250000 -0.000000 -0.000000    0.00057870   4 t-inv F
  0.333333 -0.000000  0.000000    0.00057870   5 t-inv F
  0.416667 -0.000000 -0.000000    0.00057870   6 t-inv F
  0.500000 -0.000000 -0.000000    0.00057870   7 t-inv F
  0.083333  0.083333 -0.000000    0.00057870   8 t-inv F
  0.166667  0.083333 -0.000000    0.00057870   9 t-inv F
  0.250000  0.083333 -0.000000    0.00057870  10 t-inv F
  0.333333  0.083333 -0.000000    0.00057870  11 t-inv F
  0.416667  0.083333 -0.000000    0.00057870  12 t-inv F
[...]
      8      -1.7208      2.00000
      9       2.7265      0.00000
     10       5.8843      0.00000
     11       5.8843      0.00000
     12       5.8843      0.00000
     13       6.7107      0.00000
     14       6.7107      0.00000
     15       9.8945      0.00000
     16      13.4457      0.00000

[...]

 soft charge-density along one line, spin component           1
         0         1         2         3         4         5         6         7         8         9
 total charge-density along one line

------------------------ aborting loop because EDIFF is reached ----------------------------------------

  FORCE on cell =-STRESS in cart. coord.  units (eV):
  Direction    XX          YY          ZZ          XY          YZ          ZX
  Alpha Z    45.43119    45.43119    45.43119
  Ewald    -267.10654  -267.10654  -267.10654    -0.00000     0.00000     0.00000
  Hartree    90.40796    90.40796    90.40796    -0.00000     0.00000    -0.00000
  E(xc)     -63.84185   -63.84185   -63.84185    -0.00000     0.00000    -0.00000
  Local     -22.50625   -22.50625   -22.50625     0.00001    -0.00001     0.00001
  n-local    -3.97825    -3.87693    -4.07958    -0.22136     0.03141     0.09245
  augment     2.91019     2.91019     2.91019    -0.00001     0.00001    -0.00001
  Kinetic   219.05850   219.61666   218.50034    -2.46632     0.35018     0.95169
  Fock        0.00000     0.00000     0.00000     0.00000     0.00000     0.00000
  Total       0.37494     0.37494     0.37494     0.00000    -0.00000     0.00000
  in kB       8.39953     8.39953     8.39953     0.00000    -0.00000     0.00000

 VOLUME and BASIS-vectors are now :
  energy-cutoff  :      520.00
  volume of cell :       71.52
      direct lattice vectors                 reciprocal lattice vectors
    -3.294540717  0.000000000  3.294540717    -0.151766223 -0.151766223  0.151766223
     0.000000000  3.294540717  3.294540717     0.151766223  0.151766223  0.151766223
    -3.294540717  3.294540717  0.000000000    -0.151766223  0.151766223 -0.151766223

  length of vectors
     4.659184163  4.659184163  4.659184163     0.262866809  0.262866809  0.262866809

 FORCES acting on ions
    electron-ion (+dipol)            ewald-force                    non-local-force                 convergence-correction
   -.133E-04 -.636E-14 0.524E-14   0.134E-04 -.294E-14 -.413E-14   0.831E-06 -.200E-23 0.110E-23   -.131E-05 0.438E-13 0.202E-13
   0.135E-04 0.237E-11 0.219E-11   -.134E-04 0.273E-14 0.443E-14   -.858E-07 0.231E-24 -.151E-23   -.266E-06 -.644E-12 -.650E-12
   0.217E-06 0.236E-11 0.220E-11   -.696E-15 -.216E-15 0.295E-15   0.745E-06 -.176E-23 -.406E-24   -.158E-05 -.600E-12 -.630E-12

 POSITION                                       TOTAL-FORCE (eV/Angst)
      0.00000      0.00000      0.00000        -0.000000      0.000000      0.000000
     -3.29454      3.29454      3.29454         0.000000     -0.000000     -0.000000
    total drift:                               -0.000001      0.000000      0.000000

  FREE ENERGIE OF THE ION-ELECTRON SYSTEM (eV)
  free  energy   TOTEN  =        -6.21327465 eV

  energy  without entropy=       -6.21327465  energy(sigma->0) =       -6.21327465

 Found     4 degrees of freedom:

     directions for atom     1:  y
     directions for atom     2:  y
 Linear response reoptimize wavefunctions
 Linear response to external field (no local field effect), progress :
  Direction:   1
  LATTYP: Found a face centered cubic cell.
 ALAT       =     6.5890814335

[...]

----------------------------------------- Iteration    1(   1)  ---------------------------------------

 Free energy of the ion-electron system (eV)
  -Hartree energ DENC   =         0.00000000
  -V(xc)+E(xc)   XCENC  =         0.00000000
  PAW double counting   =         0.00000000        0.00000000
  entropy T*S    EENTRO =         0.00000000
  eigenvalues    EBANDS =        -0.34357879
  free energy    TOTEN  =        -0.34357879 eV

  energy without entropy =       -0.34357879

[...]

 change of polarisation eV/A/(eV/A) component  1 :     0.723    -0.093     0.034
 dielectric tensor                  component  1 :     2.830    -0.235     0.087

 Linear response to external field (no local field effect), progress :
  Direction:   2
  LATTYP: Found a face centered cubic cell.
 ALAT       =     6.5890814335

[...]

The dynamic configuration has the point symmetry C_1h.

[...]

 Linear response to external field (no local field effect), progress :
  Direction:   3
  LATTYP: Found a face centered cubic cell.
 ALAT       =     6.5890814335

[...]

 HEAD OF MICROSCOPIC STATIC DIELECTRIC TENSOR (INDEPENDENT PARTICLE, excluding Hartree and local field effects)
           2.829512    -0.000000     0.000000
          -0.000000     2.829514    -0.000000
           0.000000    -0.000000     2.829514

 Linear response to external field, progress :
  Direction:   1
  LATTYP: Found a face centered cubic cell.
 ALAT       =     6.5890814335

[...]

 PIEZOELECTRIC TENSOR FIELD DIRECTION 1  (e Angst)
     0.00006 -0.00000  0.00000           ( -0.00000 -0.00000  0.00000)
    -0.00000  0.00004 -0.00000           ( -0.00000  0.00000 -0.00000)
     0.00000 -0.00000  0.00004           (  0.00000 -0.00000  0.00000)

 PIEZOELECTRIC TENSOR FIELD DIRECTION 1  (C/m^2)
     0.00001 -0.00000  0.00000
    -0.00000  0.00001 -0.00000
     0.00000 -0.00000  0.00001

      POSITION         DIRECTION 1           BORN EFFECTIVE CHARGE    (rigid.aug.   ionic)
      0.00000      0.00000      0.00000     1.12579 -0.00000  0.00000 ( -1.48543  9.00000)
     -3.29454      3.29454      3.29454    -1.12579 -0.00000  0.00000 (  1.38388  7.00000)
    total drift (improves with k-points):  -0.00000 -0.00000  0.00000

[...]

 Linear response to external field, progress :
  Direction:   3
  LATTYP: Found a face centered cubic cell.
 ALAT       =     6.5890814335

[...]

 change of polarisation eV/A/(eV/A) component  3 :    -0.000     0.002     0.616
 dielectric tensor                  component  3 :    -0.000     0.004     2.558

 PIEZOELECTRIC TENSOR FIELD DIRECTION 3  (e Angst)
    -0.00001  0.00000 -0.00006           ( -0.00000  0.00000  0.00000)
     0.00000 -0.00002  0.00000           (  0.00000 -0.00000  0.00000)
    -0.00006  0.00000 -0.00000           (  0.00000  0.00000 -0.00000)

 PIEZOELECTRIC TENSOR FIELD DIRECTION 3  (C/m^2)
    -0.00000  0.00000 -0.00001
     0.00000 -0.00000  0.00000
    -0.00001  0.00000 -0.00000

      POSITION         DIRECTION 3           BORN EFFECTIVE CHARGE    (rigid.aug.   ionic)
      0.00000      0.00000      0.00000     0.00000 -0.00000  1.12579 ( -1.48543  9.00000)
     -3.29454      3.29454      3.29454     0.00000 -0.00000 -1.12580 (  1.38388  7.00000)
    total drift (improves with k-points):   0.00000 -0.00000 -0.00002

[...]

 MACROSCOPIC STATIC DIELECTRIC TENSOR (including local field effects in DFT)
           2.558053    -0.000000     0.000000
          -0.000000     2.558053    -0.000000
           0.000000    -0.000000     2.558053

 Linear response:
   Degrees of freedom DOF   =            4
 Linear response progress:
  Degree of freedom:   1/  4
  LATTYP: Found a face centered cubic cell.
 ALAT       =     6.5890814335

[...]

 INTERNAL STRAIN TENSOR  FOR ION    1  DIRECTION 1   (eV/Angst):
     0.00071  0.00000  0.00000
    -0.00000 -0.00016 -0.00000
    -0.00000  0.00000 -0.00016

 POSITION                   FORCE-CONSTANT FOR ION    1 DIRECTION 1 (eV/Angst/Angst)
      0.00000      0.00000      0.00000        -1.272293      0.000000      0.000000
     -3.29454      3.29454      3.29454         1.272293     -0.000000     -0.000000
    total drift:                                0.000000      0.000000      0.000000

 BORN EFFECTIVE CHARGE FOR ION    1 DIRECTION 1 :   1.126  -0.000   0.000
                   rigid augmentation           :  -1.485  -0.000   0.000
                   ionic contribution           :   9.000  -0.000   0.000
                   Berry contribution           :  -6.389   0.000  -0.000

 Linear response progress:
  Degree of freedom:   2/  4
  LATTYP: Found a face centered cubic cell.
 ALAT       =     6.5890814335

[...]

 Linear response progress:
  Degree of freedom:   4/  4
  LATTYP: Found a face centered cubic cell.
 ALAT       =     6.5890814335

[...]

The dynamic configuration has the point symmetry C_1h.

[...]

----------------------------------------- Iteration    8(  11)  ---------------------------------------

 Broyden mixing:
  rms(total) = 0.61364E-04    rms(broyden)= 0.61364E-04
  rms(prec ) = 0.74059E-04
  weight for this iteration     100.00

 eigenvalues of (default mixing * dielectric matrix)
  average eigenvalue GAMMA=   1.7346
  3.1904  2.7990  2.4342  1.7209  1.5416  1.2227  1.0054  0.9033  0.7938

 Free energy of the ion-electron system (eV)
  -Hartree energ DENC   =        -0.07579337
  -V(xc)+E(xc)   XCENC  =         0.00042776
  PAW double counting   =         0.00001055       -0.00001066
  entropy T*S    EENTRO =        -0.00000000
  eigenvalues    EBANDS =        -0.07020772
  free energy    TOTEN  =        -0.14557344 eV

  energy without entropy =       -0.14557344

[...]

 k-point 476 :      -0.0000   -0.5000   -0.5000
  band No.  band energies     occupation
      1      -0.0001      0.00000
      2       0.0002      0.00000
      3      -0.0001      0.00000
      4      -0.0001      0.00000
      5      -0.0001      0.00000
      6       0.0001      0.00000
      7       0.0001      0.00000
      8       0.0001      0.00000
      9       0.0000      0.00000
     10       0.0000      0.00000
     11      -0.0000      0.00000
     12       0.0001      0.00000
     13      -0.0000      0.00000
     14      -0.0000      0.00000
     15      -0.0000      0.00000
     16       0.0002      0.00000

------------------------ aborting loop because EDIFF is reached ----------------------------------------

 INTERNAL STRAIN TENSOR  FOR ION    2  DIRECTION 2   (eV/Angst):
     0.00059  0.00040  0.00000
     0.00040  0.00093  0.00000
     0.00000  0.00000 -0.00003

 POSITION                   FORCE-CONSTANT FOR ION    2 DIRECTION 2 (eV/Angst/Angst)
      0.00000      0.00000      0.00000        -0.000021      1.265793      0.000000
     -3.29454      3.29454      3.29454         0.000021     -1.265793     -0.000000
    total drift:                                0.000000      0.000000      0.000000

 BORN EFFECTIVE CHARGE FOR ION    2 DIRECTION 2 :  -0.000  -1.126   0.000
                   rigid augmentation           :  -0.000   1.384  -0.000
                   ionic contribution           :  -0.000   7.000  -0.000
                   Berry contribution           :  -0.000  -9.510   0.000

  LATTYP: Found a face centered cubic cell.
 ALAT       =     6.5890814335

  Lattice vectors:

 A1 = (  -3.2945407167,   0.0000000000,   3.2945407167)
 A2 = (   0.0000000000,   3.2945407167,   3.2945407167)
 A3 = (  -3.2945407167,   3.2945407167,   0.0000000000)

Analysis of symmetry for initial positions (statically):
 Subroutine PRICEL returns:
 Original cell was already a primitive cell.

[...]

The static configuration has the point symmetry C_4v.

Analysis of symmetry for dynamics (positions and initial velocities):
 Subroutine PRICEL returns:
 Original cell was already a primitive cell.

 Routine SETGRP: Setting up the symmetry group for a
 face centered cubic supercell.

 Subroutine GETGRP returns: Found  8 space group operations
 (whereof  8 operations were pure point group operations)
 out of a pool of 48 trial point group operations.

The dynamic configuration has the point symmetry C_4v.

 Subroutine INISYM returns: Found  8 space group operations
 (whereof  8 operations are pure point group operations),
 and found     1 'primitive' translations

 MACROSCOPIC STATIC DIELECTRIC TENSOR (including local field effects in DFT)
           2.558053    -0.000000     0.000000
          -0.000000     2.558053    -0.000000
           0.000000    -0.000000     2.558053

 PIEZOELECTRIC TENSOR  for field in x, y, z        (e  Angst)
          XX          YY          ZZ          XY          YZ          ZX
  x     0.00006     0.00004     0.00004    -0.00000    -0.00000     0.00000
  y    -0.00006    -0.00001    -0.00003     0.00020     0.00000     0.00000
  z    -0.00001    -0.00002    -0.00000     0.00000     0.00000    -0.00006

 PIEZOELECTRIC TENSOR  for field in x, y, z        (C/m^2)
          XX          YY          ZZ          XY          YZ          ZX
  x     0.00001     0.00001     0.00001    -0.00000    -0.00000     0.00000
  y    -0.00000    -0.00000    -0.00000     0.00002     0.00000    -0.00000
  z     0.00000     0.00000     0.00000    -0.00000    -0.00000     0.00002

 BORN EFFECTIVE CHARGES (in e, cummulative output)
 ion    1
    1     1.12579     0.00000     0.00000
    2    -0.00000     1.12579    -0.00000
    3     0.00000    -0.00000     1.12580
 ion    2
    1    -1.12579    -0.00000    -0.00000
    2     0.00000    -1.12579     0.00000
    3    -0.00000     0.00000    -1.12580

 INTERNAL STRAIN TENSOR FOR ION    1 for displacements in x,y,z  (eV/Angst):
          X           Y           Z          XY          YZ          ZX
  x     0.00071    -0.00016    -0.00016     0.00000     0.00000    -0.00000
  y     0.00000     0.00000     0.00000    -0.00160    -0.00000     0.00000
  z     0.00000     0.00000     0.00000     0.00000     0.00000    -0.00161

 INTERNAL STRAIN TENSOR FOR ION    2 for displacements in x,y,z  (eV/Angst):
          X           Y           Z          XY          YZ          ZX
  x    -0.00074    -0.00023    -0.00023     0.00000     0.00000    -0.00000
  y     0.00000     0.00000     0.00000     0.00040     0.00000    -0.00000
  z     0.00000     0.00000     0.00000    -0.00000    -0.00000     0.00040

 SECOND DERIVATIVES (NOT SYMMETRIZED)
               1X          1Y          1Z          2X          2Y          2Z
  1X    -1.272293    0.000000   -0.000000    1.272293   -0.000000    0.000000
  1Y     0.000000   -1.272285    0.000000   -0.000000    1.272285   -0.000000
  1Z    -0.000000    0.000000   -1.272285    0.000000   -0.000000    1.272285
  2X     1.265836   -0.000000    0.000000   -1.265836    0.000000   -0.000000
  2Y    -0.000000    1.265793   -0.000000    0.000000   -1.265793    0.000000
  2Z     0.000000   -0.000000    1.265793   -0.000000    0.000000   -1.265793

 Eigenvectors and eigenvalues of the dynamical matrix

   1 f  =    3.438727 THz    21.606162 2PiTHz  114.703597 cm-1    14.221439 meV
             X         Y         Z           dx          dy          dz
      0.000000  0.000000  0.000000    -0.820105   -0.000000   -0.000000
     -3.294540  3.294541  3.294541     0.572213    0.000000   -0.000000

[...]

   3 f  =    3.438702 THz    21.606003 2PiTHz  114.702753 cm-1    14.221334 meV
             X         Y         Z           dx          dy          dz
      0.000000  0.000000  0.000000     0.000000   -0.000000    0.820108
     -3.294540  3.294541  3.294541    -0.000000   -0.000000   -0.572208

   4 f/i=    0.004105 THz     0.025793 2PiTHz    0.136930 cm-1     0.016977 meV
             X         Y         Z           dx          dy          dz
      0.000000  0.000000  0.000000     0.572213   -0.000000   -0.000000
     -3.294540  3.294541  3.294541     0.820105   -0.000000   -0.000000

[...]

   6 f/i=    0.004128 THz     0.025934 2PiTHz    0.137679 cm-1     0.017070 meV
             X         Y         Z           dx          dy          dz
      0.000000  0.000000  0.000000    -0.000000   -0.495850   -0.285579
     -3.294540  3.294541  3.294541    -0.000000   -0.710669   -0.409302

 MACROSCOPIC STATIC DIELECTRIC TENSOR IONIC CONTRIBUTION
           2.526865    -0.000002     0.000001
          -0.000002     2.526929    -0.000000
           0.000001    -0.000000     2.526931

 ELASTIC MODULI IONIC CONTR (kBar)
 Direction    XX          YY          ZZ          XY          YZ          ZX
 XX          -0.0000     -0.0000     -0.0000      0.0000      0.0000      0.0000
 YY          -0.0000     -0.0000     -0.0000     -0.0000      0.0000      0.0000
 ZZ          -0.0000     -0.0000     -0.0000     -0.0000      0.0000      0.0000
 XY           0.0000     -0.0000     -0.0000     -0.0000     -0.0000      0.0000
 YZ           0.0000      0.0000      0.0000     -0.0000     -0.0000      0.0000
 ZX           0.0000      0.0000      0.0000      0.0000      0.0000     -0.0000

 PIEZOELECTRIC TENSOR IONIC CONTR  for field in x, y, z        (C/m^2)
          XX          YY          ZZ          XY          YZ          ZX
  x     0.00014     0.00001     0.00001    -0.00000    -0.00000    -0.00000
  y    -0.00000    -0.00000    -0.00000    -0.00020    -0.00000     0.00000
  z     0.00000     0.00000     0.00000     0.00000     0.00000    -0.00020