 vasp.5.4.4.18Apr17-6-g9f103f2a35 (build Aug 24 2017 11:22:49) complex

 executed on             LinuxIFC date 2023.12.25  13:07:53

 INCAR:
 POTCAR:    PAW_PBE Li_sv 10Sep2004
 POTCAR:    PAW_PBE H 15Jun2001

 POTCAR:    PAW_PBE Li_sv 10Sep2004
   VRHFIN =Li: 1s2s2p

   TITEL  = PAW_PBE Li_sv 10Sep2004
   POMASS =    7.010; ZVAL   =    3.000    mass and valenz
   ENMAX  =  499.034; ENMIN  =  374.276 eV

 POTCAR:    PAW_PBE H 15Jun2001
   VRHFIN =H: ultrasoft test

   TITEL  = PAW_PBE H 15Jun2001
   POMASS =    1.000; ZVAL   =    1.000    mass and valenz
   ENMAX  =  250.000; ENMIN  =  200.000 eV

  PAW_PBE Li_sv 10Sep2004               :
  PAW_PBE H 15Jun2001                   :

 POSCAR: Li1 H1
  positions in direct lattice
 exchange correlation table for  LEXCH =        8
   RHO(1)=    0.500       N(1)  =     2000
   RHO(2)=  100.500       N(2)  =     4000

 ion  position               nearest neighbor table
   1  0.000  0.000  0.000-
   2  0.500  0.500  0.500-

  LATTYP: Found a face centered cubic cell.
 ALAT       =     4.0172384753

  Lattice vectors:

 A1 = (  -2.0086192376,   0.0000000000,   2.0086192376)
 A2 = (   0.0000000000,   2.0086192376,   2.0086192376)
 A3 = (  -2.0086192376,   2.0086192376,   0.0000000000)

Analysis of symmetry for initial positions (statically):
 Subroutine PRICEL returns:
 Original cell was already a primitive cell.

 Routine SETGRP: Setting up the symmetry group for a
 face centered cubic supercell.

 Subroutine GETGRP returns: Found  8 space group operations
 (whereof  8 operations were pure point group operations)
 out of a pool of 48 trial point group operations.

The static configuration has the point symmetry C_4v.

Analysis of symmetry for dynamics (positions and initial velocities):
 Subroutine PRICEL returns:
 Original cell was already a primitive cell.

[...]

The dynamic configuration has the point symmetry C_4v.

 Subroutine INISYM returns: Found  8 space group operations
 (whereof  8 operations are pure point group operations),
 and found     1 'primitive' translations

 KPOINTS: pymatgen with grid density = 3000 / numb

Automatic generation of k-mesh.
Space group operators:
 irot       det(A)        alpha          n_x          n_y          n_z        tau_x        tau_y        tau_z
    1     1.000000     0.000000     1.000000     0.000000     0.000000     0.000000     0.000000     0.000000
    2     1.000000    90.000000    -1.000000    -0.000000     0.000000     0.000000     0.000000     0.000000
    3    -1.000000   180.000000     0.000000    -0.000000     1.000000     0.000000     0.000000     0.000000
    4    -1.000000   180.000000    -0.000000     0.707107     0.707107     0.000000     0.000000     0.000000
    5    -1.000000   180.000000     0.000000    -1.000000    -0.000000     0.000000     0.000000     0.000000
    6     1.000000    90.000000     1.000000     0.000000    -0.000000     0.000000     0.000000     0.000000
    7     1.000000   180.000000     1.000000     0.000000     0.000000     0.000000     0.000000     0.000000
    8    -1.000000   180.000000     0.000000    -0.707107     0.707107     0.000000     0.000000     0.000000

 Subroutine IBZKPT returns following result:

 Found    163 irreducible k-points:

 Following reciprocal coordinates:
            Coordinates               Weight
  0.000000  0.000000  0.000000      1.000000
  0.083333 -0.000000 -0.000000      8.000000
  0.166667 -0.000000 -0.000000      8.000000
  0.250000  0.000000  0.000000      8.000000
  0.333333 -0.000000 -0.000000      8.000000
  0.416667  0.000000  0.000000      8.000000
  0.500000  0.000000  0.000000      4.000000
  0.083333  0.083333  0.000000      4.000000
  0.166667  0.083333  0.000000     16.000000
  0.250000  0.083333  0.000000     16.000000
  0.333333  0.083333  0.000000     16.000000
  0.416667  0.083333  0.000000     16.000000
  0.500000  0.083333  0.000000     16.000000
 -0.416667  0.083333 -0.000000     16.000000
 -0.333333  0.083333 -0.000000     16.000000
 -0.250000  0.083333  0.000000     16.000000
 -0.166667  0.083333  0.000000     16.000000
 -0.083333  0.083333  0.000000      8.000000
  0.166667  0.166667  0.000000      4.000000
  0.250000  0.166667  0.000000     16.000000
  0.333333  0.166667  0.000000     16.000000
  0.416667  0.166667  0.000000     16.000000
  0.500000  0.166667  0.000000     16.000000
 -0.416667  0.166667 -0.000000     16.000000
 -0.333333  0.166667  0.000000     16.000000
 -0.250000  0.166667 -0.000000     16.000000
 -0.166667  0.166667  0.000000      8.000000
  0.250000  0.250000  0.000000      4.000000
  0.333333  0.250000  0.000000     16.000000
  0.416667  0.250000  0.000000     16.000000
  0.500000  0.250000  0.000000     16.000000
 -0.416667  0.250000  0.000000     16.000000
 -0.333333  0.250000 -0.000000     16.000000
 -0.250000  0.250000 -0.000000      8.000000
  0.333333  0.333333  0.000000      4.000000
  0.416667  0.333333  0.000000     16.000000
  0.500000  0.333333  0.000000     16.000000
 -0.416667  0.333333  0.000000     16.000000
 -0.333333  0.333333  0.000000      8.000000
  0.416667  0.416667  0.000000      4.000000
  0.500000  0.416667  0.000000     16.000000
 -0.416667  0.416667 -0.000000      8.000000
  0.500000  0.500000  0.000000      2.000000
  0.083333  0.000000  0.083333      2.000000
  0.166667  0.000000  0.083333      8.000000
  0.250000 -0.000000  0.083333      8.000000
  0.333333  0.000000  0.083333      8.000000
  0.416667 -0.000000  0.083333      8.000000
  0.500000  0.000000  0.083333      8.000000
 -0.416667  0.000000  0.083333      8.000000
 -0.333333 -0.000000  0.083333      8.000000
 -0.250000  0.000000  0.083333      8.000000
 -0.166667 -0.000000  0.083333      8.000000
 -0.083333  0.000000  0.083333      4.000000
  0.250000  0.166667  0.083333      8.000000
  0.333333  0.166667  0.083333     16.000000
  0.416667  0.166667  0.083333     16.000000
  0.500000  0.166667  0.083333     16.000000
 -0.416667  0.166667  0.083333      8.000000
  0.166667  0.250000  0.083333      8.000000
[...]
  0.333333 -0.083333  0.250000      8.000000
  0.333333  0.000000  0.333333      2.000000
  0.416667  0.000000  0.333333      8.000000
  0.500000  0.000000  0.333333      8.000000
 -0.416667  0.000000  0.333333      8.000000
 -0.333333  0.000000  0.333333      4.000000
  0.416667 -0.250000  0.333333      8.000000
  0.416667 -0.166667  0.333333     16.000000
  0.500000 -0.166667  0.333333      4.000000
  0.416667 -0.083333  0.333333      8.000000
  0.416667  0.000000  0.416667      2.000000
  0.500000  0.000000  0.416667      8.000000
 -0.416667 -0.000000  0.416667      4.000000
  0.500000 -0.083333  0.416667      4.000000
  0.500000  0.000000  0.500000      1.000000

 Following cartesian coordinates:
            Coordinates               Weight
  0.000000  0.000000  0.000000      1.000000
 -0.020744 -0.020744  0.020744      8.000000
 -0.041488 -0.041488  0.041488      8.000000
 -0.062232 -0.062232  0.062232      8.000000
 -0.082976 -0.082976  0.082976      8.000000
 -0.103720 -0.103720  0.103720      8.000000
 -0.124464 -0.124464  0.124464      4.000000
  0.000000  0.000000  0.041488      4.000000
 -0.020744 -0.020744  0.062232     16.000000
 -0.041488 -0.041488  0.082976     16.000000
 -0.062232 -0.062232  0.103720     16.000000
 -0.082976 -0.082976  0.124464     16.000000
 -0.103720 -0.103720  0.145208     16.000000
  0.124464  0.124464 -0.082976     16.000000
  0.103720  0.103720 -0.062232     16.000000
  0.082976  0.082976 -0.041488     16.000000
  0.062232  0.062232 -0.020744     16.000000
  0.041488  0.041488 -0.000000      8.000000
 -0.000000  0.000000  0.082976      4.000000
 -0.020744 -0.020744  0.103720     16.000000
 -0.041488 -0.041488  0.124464     16.000000
 -0.062232 -0.062232  0.145208     16.000000
 -0.082976 -0.082976  0.165951     16.000000
  0.145208  0.145208 -0.062232     16.000000
  0.124464  0.124464 -0.041488     16.000000
  0.103720  0.103720 -0.020744     16.000000
  0.082976  0.082976 -0.000000      8.000000
  0.000000  0.000000  0.124464      4.000000
 -0.020744 -0.020744  0.145208     16.000000
 -0.041488 -0.041488  0.165951     16.000000
 -0.062232 -0.062232  0.186695     16.000000
  0.165951  0.165951 -0.041488     16.000000
  0.145208  0.145208 -0.020744     16.000000
  0.124464  0.124464  0.000000      8.000000
  0.000000  0.000000  0.165951      4.000000
 -0.020744 -0.020744  0.186695     16.000000
 -0.041488 -0.041488  0.207439     16.000000
  0.186695  0.186695 -0.020744     16.000000
  0.165951  0.165951 -0.000000      8.000000
  0.000000  0.000000  0.207439      4.000000
 -0.020744 -0.020744  0.228183     16.000000
  0.207439  0.207439  0.000000      8.000000
  0.000000  0.000000  0.248927      2.000000
 -0.041488  0.000000  0.000000      2.000000
 -0.062232 -0.020744  0.020744      8.000000
 -0.082976 -0.041488  0.041488      8.000000
 -0.103720 -0.062232  0.062232      8.000000
 -0.124464 -0.082976  0.082976      8.000000
 -0.145208 -0.103720  0.103720      8.000000
  0.082976  0.124464 -0.124464      8.000000
  0.062232  0.103720 -0.103720      8.000000
  0.041488  0.082976 -0.082976      8.000000
  0.020744  0.062232 -0.062232      8.000000
 -0.000000  0.041488 -0.041488      4.000000
 -0.041488  0.000000  0.082976      8.000000
 -0.062232 -0.020744  0.103720     16.000000
 -0.082976 -0.041488  0.124464     16.000000
 -0.103720 -0.062232  0.145208     16.000000
  0.124464  0.165951 -0.082976      8.000000
 -0.000000  0.041488  0.082976      8.000000
[...]
 -0.165951 -0.041488  0.000000      8.000000
 -0.165951  0.000000  0.000000      2.000000
 -0.186695 -0.020744  0.020744      8.000000
 -0.207439 -0.041488  0.041488      8.000000
  0.020744  0.186695 -0.186695      8.000000
  0.000000  0.165951 -0.165951      4.000000
 -0.248927 -0.082976 -0.041488      8.000000
 -0.228183 -0.062232 -0.020744     16.000000
 -0.248927 -0.082976  0.000000      4.000000
 -0.207439 -0.041488  0.000000      8.000000
 -0.207439  0.000000  0.000000      2.000000
 -0.228183 -0.020744  0.020744      8.000000
  0.000000  0.207439 -0.207439      4.000000
 -0.248927 -0.041488  0.000000      4.000000
 -0.248927  0.000000  0.000000      1.000000

 Subroutine IBZKPT_HF returns following result:

 Found   1728 k-points in 1st BZ
 the following   1728 k-points will be used (e.g. in the exchange kernel)
 Following reciprocal coordinates:   # in IRBZ
  0.000000  0.000000  0.000000    0.00057870   1 t-inv F
  0.083333 -0.000000 -0.000000    0.00057870   2 t-inv F
  0.166667 -0.000000 -0.000000    0.00057870   3 t-inv F
  0.250000  0.000000  0.000000    0.00057870   4 t-inv F
  0.333333 -0.000000 -0.000000    0.00057870   5 t-inv F
  0.416667  0.000000  0.000000    0.00057870   6 t-inv F
  0.500000  0.000000  0.000000    0.00057870   7 t-inv F
  0.083333  0.083333  0.000000    0.00057870   8 t-inv F
  0.166667  0.083333  0.000000    0.00057870   9 t-inv F
  0.250000  0.083333  0.000000    0.00057870  10 t-inv F
  0.333333  0.083333  0.000000    0.00057870  11 t-inv F
  0.416667  0.083333  0.000000    0.00057870  12 t-inv F
  0.500000  0.083333  0.000000    0.00057870  13 t-inv F
 -0.416667  0.083333 -0.000000    0.00057870  14 t-inv F
[...]
  the test charge radii are     0.7079  0.5201
  (the norm of the test charge is              1.0000)
       1 -63.2752       2 -33.9700

 E-fermi :   0.2235     XC(G=0):  -8.4907     alpha+bet :-10.9325

 k-point     1 :       0.0000    0.0000    0.0000
  band No.  band energies     occupation
      1     -44.2357      2.00000
      2      -5.3475      2.00000
      3      16.0736      0.00000
      4      17.8857      0.00000
      5      17.8857      0.00000
      6      17.8857      0.00000
      7      22.5891      0.00000
      8      22.5891      0.00000

[...]

 soft charge-density along one line, spin component           1
         0         1         2         3         4         5         6         7         8         9
 total charge-density along one line

------------------------ aborting loop because EDIFF is reached ----------------------------------------

  FORCE on cell =-STRESS in cart. coord.  units (eV):
  Direction    XX          YY          ZZ          XY          YZ          ZX
  Alpha Z     2.49497     2.49497     2.49497
  Ewald     -31.29688   -31.29688   -31.29688     0.00000    -0.00000    -0.00000
  Hartree    12.17777    12.17778    12.17778    -0.00000     0.00000    -0.00000
  E(xc)     -16.54215   -16.54215   -16.54215    -0.00001     0.00001    -0.00001
  Local     -15.27774   -15.27774   -15.27774     0.00004    -0.00004     0.00004
  n-local   -18.90225   -19.22313   -18.58136     0.11412    -0.01332    -0.06869
  augment    17.98859    17.98859    17.98859    -0.00004     0.00004    -0.00004
  Kinetic    49.30528    48.23391    50.37665     3.96097    -0.29030    -1.35422
  Fock        0.00000     0.00000     0.00000     0.00000     0.00000     0.00000
  Total      -0.05240    -0.05240    -0.05240    -0.00000    -0.00000     0.00000
  in kB      -5.17941    -5.17949    -5.17949    -0.00000    -0.00000     0.00000

 VOLUME and BASIS-vectors are now :
  energy-cutoff  :      520.00
  volume of cell :       16.21
      direct lattice vectors                 reciprocal lattice vectors
    -2.008619238  0.000000000  2.008619238    -0.248927219 -0.248927219  0.248927219
     0.000000000  2.008619238  2.008619238     0.248927219  0.248927219  0.248927219
    -2.008619238  2.008619238  0.000000000    -0.248927219  0.248927219 -0.248927219

  length of vectors
     2.840616568  2.840616568  2.840616568     0.431154590  0.431154590  0.431154590

 FORCES acting on ions
    electron-ion (+dipol)            ewald-force                    non-local-force                 convergence-correction
   -.215E-05 0.530E-12 0.532E-12   0.172E-05 -.274E-15 -.649E-15   0.593E-06 -.406E-23 0.113E-24   -.205E-08 0.973E-12 0.973E-12
   0.145E-05 -.181E-12 -.118E-12   -.172E-05 0.233E-15 0.699E-15   0.109E-06 -.201E-23 0.805E-24   -.276E-08 -.331E-13 -.331E-13
   -.693E-06 0.349E-12 0.414E-12   0.343E-16 -.410E-16 0.501E-16   0.702E-06 -.608E-23 0.918E-24   -.481E-08 0.940E-12 0.940E-12

 POSITION                                       TOTAL-FORCE (eV/Angst)
      0.00000      0.00000      0.00000         0.000000      0.000000     -0.000000
     -2.00862      2.00862      2.00862        -0.000000     -0.000000      0.000000
    total drift:                                0.000000      0.000000      0.000000

  FREE ENERGIE OF THE ION-ELECTRON SYSTEM (eV)
  free  energy   TOTEN  =        -6.12696780 eV

  energy  without entropy=       -6.12696780  energy(sigma->0) =       -6.12696780

 Found     4 degrees of freedom:

     directions for atom     1:  y
     directions for atom     2:  y
 Linear response reoptimize wavefunctions
 Linear response to external field (no local field effect), progress :
  Direction:   1
  LATTYP: Found a face centered cubic cell.
 ALAT       =     4.0172384753

[...]

----------------------------------------- Iteration    1(   1)  ---------------------------------------

 Free energy of the ion-electron system (eV)
  -Hartree energ DENC   =         0.00000000
  -V(xc)+E(xc)   XCENC  =         0.00000000
  PAW double counting   =         0.00000000        0.00000000
  entropy T*S    EENTRO =         0.00000000
  eigenvalues    EBANDS =        -0.13431641
  free energy    TOTEN  =        -0.13431641 eV

  energy without entropy =       -0.13431641

[...]

 change of polarisation eV/A/(eV/A) component  1 :     0.306     0.113    -0.024
 dielectric tensor                  component  1 :     4.419     1.263    -0.266

 Linear response to external field (no local field effect), progress :
  Direction:   2
  LATTYP: Found a face centered cubic cell.
 ALAT       =     4.0172384753

[...]

The dynamic configuration has the point symmetry C_1h.

[...]

 Linear response to external field (no local field effect), progress :
  Direction:   3
  LATTYP: Found a face centered cubic cell.
 ALAT       =     4.0172384753

[...]

 HEAD OF MICROSCOPIC STATIC DIELECTRIC TENSOR (INDEPENDENT PARTICLE, excluding Hartree and local field effects)
           4.419393     0.000000    -0.000000
           0.000000     4.418229     0.000000
          -0.000000     0.000000     4.418229

 Linear response to external field, progress :
  Direction:   1
  LATTYP: Found a face centered cubic cell.
 ALAT       =     4.0172384753

[...]

 PIEZOELECTRIC TENSOR FIELD DIRECTION 1  (e Angst)
     0.00004 -0.00000 -0.00000           (  0.00000  0.00000 -0.00000)
    -0.00000 -0.00009 -0.00000           (  0.00000  0.00000  0.00000)
    -0.00000  0.00000 -0.00009           ( -0.00000  0.00000  0.00000)

 PIEZOELECTRIC TENSOR FIELD DIRECTION 1  (C/m^2)
     0.00004 -0.00000 -0.00000
    -0.00000 -0.00009 -0.00000
    -0.00000  0.00000 -0.00009

      POSITION         DIRECTION 1           BORN EFFECTIVE CHARGE    (rigid.aug.   ionic)
      0.00000      0.00000      0.00000     1.02103  0.00000  0.00000 ( -0.95785  3.00000)
     -2.00862      2.00862      2.00862    -1.02114  0.00000 -0.00000 ( -0.01900  1.00000)
    total drift (improves with k-points):  -0.00011  0.00000 -0.00000

[...]

 Linear response to external field, progress :
  Direction:   3
  LATTYP: Found a face centered cubic cell.
 ALAT       =     4.0172384753

[...]

 change of polarisation eV/A/(eV/A) component  3 :    -0.000    -0.001     0.302
 dielectric tensor                  component  3 :    -0.003    -0.006     4.368

 PIEZOELECTRIC TENSOR FIELD DIRECTION 3  (e Angst)
     0.00002 -0.00000  0.00025           ( -0.00000 -0.00000 -0.00000)
    -0.00000  0.00002  0.00000           ( -0.00000 -0.00000  0.00000)
     0.00025  0.00000  0.00000           ( -0.00000  0.00000 -0.00000)

 PIEZOELECTRIC TENSOR FIELD DIRECTION 3  (C/m^2)
     0.00002 -0.00000  0.00025
    -0.00000  0.00002  0.00000
     0.00025  0.00000  0.00000

      POSITION         DIRECTION 3           BORN EFFECTIVE CHARGE    (rigid.aug.   ionic)
      0.00000      0.00000      0.00000     0.00000 -0.00000  1.02096 ( -0.95785  3.00000)
     -2.00862      2.00862      2.00862    -0.00001 -0.00000 -1.02072 ( -0.01900  1.00000)
    total drift (improves with k-points):  -0.00001 -0.00000  0.00024

[...]

 MACROSCOPIC STATIC DIELECTRIC TENSOR (including local field effects in DFT)
           4.370290     0.000000    -0.000000
           0.000000     4.369291     0.000000
          -0.000000     0.000000     4.369291

 Linear response:
   Degrees of freedom DOF   =            4
 Linear response progress:
  Degree of freedom:   1/  4
  LATTYP: Found a face centered cubic cell.
 ALAT       =     4.0172384753

[...]

 INTERNAL STRAIN TENSOR  FOR ION    1  DIRECTION 1   (eV/Angst):
    -0.00080 -0.00000 -0.00000
     0.00000 -0.00083 -0.00000
     0.00000  0.00000 -0.00083

 POSITION                   FORCE-CONSTANT FOR ION    1 DIRECTION 1 (eV/Angst/Angst)
      0.00000      0.00000      0.00000        -1.056742      0.000000      0.000000
     -2.00862      2.00862      2.00862         1.056742     -0.000000     -0.000000
    total drift:                                0.000000      0.000000      0.000000

 BORN EFFECTIVE CHARGE FOR ION    1 DIRECTION 1 :   1.021   0.000  -0.000
                   rigid augmentation           :  -0.958   0.000  -0.000
                   ionic contribution           :   3.000   0.000  -0.000
                   Berry contribution           :  -1.021  -0.000   0.000

 Linear response progress:
  Degree of freedom:   2/  4
  LATTYP: Found a face centered cubic cell.
 ALAT       =     4.0172384753

[...]

 Linear response progress:
  Degree of freedom:   4/  4
  LATTYP: Found a face centered cubic cell.
 ALAT       =     4.0172384753

[...]

The dynamic configuration has the point symmetry C_1h.

[...]

----------------------------------------- Iteration    8(  12)  ---------------------------------------

 Broyden mixing:
  rms(total) = 0.49662E-06    rms(broyden)= 0.49657E-06
  rms(prec ) = 0.15562E-05
  weight for this iteration     100.00

 eigenvalues of (default mixing * dielectric matrix)
  average eigenvalue GAMMA=   1.8083
  2.9608  2.9608  2.5135  2.4551  2.3943  1.0359  1.0359  0.9346  0.8959  0.8959

 Free energy of the ion-electron system (eV)
  -Hartree energ DENC   =        -0.00432561
  -V(xc)+E(xc)   XCENC  =         0.00001341
  PAW double counting   =         0.00000273       -0.00000276
  entropy T*S    EENTRO =         0.00000000
  eigenvalues    EBANDS =        -0.01412854
  free energy    TOTEN  =        -0.01844077 eV

  energy without entropy =       -0.01844077

[...]

 k-point 476 :       0.0000   -0.5000   -0.5000
  band No.  band energies     occupation
      1       0.0002      0.00000
      2      -0.0003      0.00000
      3      -0.0002      0.00000
      4      -0.0001      0.00000
      5      -0.0001      0.00000
      6      -0.0001      0.00000
      7      -0.0001      0.00000
      8      -0.0001      0.00000

------------------------ aborting loop because EDIFF is reached ----------------------------------------

 INTERNAL STRAIN TENSOR  FOR ION    2  DIRECTION 2   (eV/Angst):
    -0.00142  0.00149  0.00000
     0.00149  0.00015  0.00000
     0.00000  0.00000  0.00033

 POSITION                   FORCE-CONSTANT FOR ION    2 DIRECTION 2 (eV/Angst/Angst)
      0.00000      0.00000      0.00000        -0.000003      1.072934      0.000000
     -2.00862      2.00862      2.00862         0.000003     -1.072934     -0.000000
    total drift:                                0.000000      0.000000      0.000000

 BORN EFFECTIVE CHARGE FOR ION    2 DIRECTION 2 :  -0.001  -1.021  -0.000
                   rigid augmentation           :   0.000  -0.019   0.000
                   ionic contribution           :   0.000   1.000   0.000
                   Berry contribution           :  -0.001  -2.002  -0.000

  LATTYP: Found a face centered cubic cell.
 ALAT       =     4.0172384753

  Lattice vectors:

 A1 = (  -2.0086192376,   0.0000000000,   2.0086192376)
 A2 = (   0.0000000000,   2.0086192376,   2.0086192376)
 A3 = (  -2.0086192376,   2.0086192376,   0.0000000000)

Analysis of symmetry for initial positions (statically):
 Subroutine PRICEL returns:
 Original cell was already a primitive cell.

[...]

The static configuration has the point symmetry C_4v.

Analysis of symmetry for dynamics (positions and initial velocities):
 Subroutine PRICEL returns:
 Original cell was already a primitive cell.

 Routine SETGRP: Setting up the symmetry group for a
 face centered cubic supercell.

 Subroutine GETGRP returns: Found  8 space group operations
 (whereof  8 operations were pure point group operations)
 out of a pool of 48 trial point group operations.

The dynamic configuration has the point symmetry C_4v.

 Subroutine INISYM returns: Found  8 space group operations
 (whereof  8 operations are pure point group operations),
 and found     1 'primitive' translations

 MACROSCOPIC STATIC DIELECTRIC TENSOR (including local field effects in DFT)
           4.370290     0.000000    -0.000000
           0.000000     4.369291     0.000000
          -0.000000     0.000000     4.369291

 PIEZOELECTRIC TENSOR  for field in x, y, z        (e  Angst)
          XX          YY          ZZ          XY          YZ          ZX
  x     0.00004    -0.00009    -0.00009    -0.00000     0.00000    -0.00000
  y     0.00017    -0.00003    -0.00003    -0.00025     0.00000     0.00000
  z     0.00002     0.00002     0.00000    -0.00000     0.00000     0.00025

 PIEZOELECTRIC TENSOR  for field in x, y, z        (C/m^2)
          XX          YY          ZZ          XY          YZ          ZX
  x     0.00004    -0.00009    -0.00009    -0.00000    -0.00000     0.00000
  y     0.00000    -0.00000    -0.00000     0.00000    -0.00000     0.00000
  z    -0.00000     0.00000     0.00000     0.00000     0.00000     0.00000

 BORN EFFECTIVE CHARGES (in e, cummulative output)
 ion    1
    1     1.02108    -0.00000     0.00000
    2     0.00029     1.02105     0.00000
    3     0.00001     0.00000     1.02084
 ion    2
    1    -1.02108     0.00000    -0.00000
    2    -0.00029    -1.02105    -0.00000
    3    -0.00001    -0.00000    -1.02084

 INTERNAL STRAIN TENSOR FOR ION    1 for displacements in x,y,z  (eV/Angst):
          X           Y           Z          XY          YZ          ZX
  x    -0.00080    -0.00083    -0.00083    -0.00000    -0.00000     0.00000
  y     0.00000     0.00000     0.00000     0.00018    -0.00000     0.00000
  z     0.00000     0.00000     0.00000     0.00000     0.00000     0.00019

 INTERNAL STRAIN TENSOR FOR ION    2 for displacements in x,y,z  (eV/Angst):
          X           Y           Z          XY          YZ          ZX
  x    -0.00015     0.00059     0.00059     0.00000     0.00000    -0.00000
  y     0.00000     0.00000     0.00000     0.00149    -0.00000     0.00000
  z     0.00000     0.00000    -0.00000     0.00000     0.00000     0.00149

 SECOND DERIVATIVES (NOT SYMMETRIZED)
               1X          1Y          1Z          2X          2Y          2Z
  1X    -1.056742   -0.000000    0.000000    1.056742    0.000000   -0.000000
  1Y    -0.000000   -1.056870   -0.000000    0.000000    1.056870    0.000000
  1Z     0.000000   -0.000000   -1.056870   -0.000000    0.000000    1.056870
  2X     1.072958    0.000000   -0.000000   -1.072958   -0.000000    0.000000
  2Y     0.000000    1.072934    0.000000   -0.000000   -1.072934   -0.000000
  2Z    -0.000000    0.000000    1.072934    0.000000   -0.000000   -1.072934

 Eigenvectors and eigenvalues of the dynamical matrix

   1 f  =   17.293808 THz   108.660200 2PiTHz  576.859322 cm-1    71.521466 meV
             X         Y         Z           dx          dy          dz
      0.000000  0.000000  0.000000    -0.350990    0.000000    0.000000
     -2.008619  2.008619  2.008619     0.936379   -0.000000    0.000000

[...]

   3 f  =   17.293768 THz   108.659948 2PiTHz  576.857985 cm-1    71.521301 meV
             X         Y         Z           dx          dy          dz
      0.000000  0.000000  0.000000     0.000000   -0.000000   -0.351012
     -2.008619  2.008619  2.008619    -0.000000    0.000000    0.936371

   4 f/i=    0.042873 THz     0.269380 2PiTHz    1.430097 cm-1     0.177309 meV
             X         Y         Z           dx          dy          dz
      0.000000  0.000000  0.000000    -0.000000   -0.679892   -0.643845
     -2.008619  2.008619  2.008619    -0.000000   -0.254868   -0.241355

[...]

   6 f/i=    0.043277 THz     0.271920 2PiTHz    1.443580 cm-1     0.178981 meV
             X         Y         Z           dx          dy          dz
      0.000000  0.000000  0.000000     0.936379   -0.000000   -0.000000
     -2.008619  2.008619  2.008619     0.350990   -0.000000   -0.000000

 MACROSCOPIC STATIC DIELECTRIC TENSOR IONIC CONTRIBUTION
          10.931132     0.003134     0.000082
           0.003134    10.929905     0.000000
           0.000082     0.000000    10.925473

 ELASTIC MODULI IONIC CONTR (kBar)
 Direction    XX          YY          ZZ          XY          YZ          ZX
 XX          -0.0000     -0.0000     -0.0000      0.0000     -0.0000      0.0000
 YY          -0.0000     -0.0000     -0.0000      0.0000     -0.0000      0.0000
 ZZ          -0.0000     -0.0000     -0.0000      0.0000     -0.0000      0.0000
 XY           0.0000      0.0000      0.0000     -0.0000      0.0000     -0.0000
 YZ          -0.0000     -0.0000     -0.0000      0.0000     -0.0000     -0.0000
 ZX           0.0000      0.0000      0.0000     -0.0000     -0.0000     -0.0000

 PIEZOELECTRIC TENSOR IONIC CONTR  for field in x, y, z        (C/m^2)
          XX          YY          ZZ          XY          YZ          ZX
  x    -0.00031    -0.00067    -0.00067     0.00000    -0.00000     0.00000
  y    -0.00000    -0.00000    -0.00000    -0.00062     0.00000    -0.00000
  z    -0.00000    -0.00000    -0.00000    -0.00000    -0.00000    -0.00062