 vasp.5.4.4.18Apr17-6-g9f103f2a35 (build Aug 24 2017 11:22:49) complex

 executed on             LinuxIFC date 2023.12.25  13:07:30

 INCAR:
 POTCAR:    PAW_PBE Sr_sv 07Sep2000
 POTCAR:    PAW_PBE O 08Apr2002

 POTCAR:    PAW_PBE Sr_sv 07Sep2000
   VRHFIN =Sr: 4s4p5s

   TITEL  = PAW_PBE Sr_sv 07Sep2000
   POMASS =   87.620; ZVAL   =   10.000    mass and valenz
   ENMAX  =  229.353; ENMIN  =  172.014 eV

 POTCAR:    PAW_PBE O 08Apr2002
   VRHFIN =O: s2p4

   TITEL  = PAW_PBE O 08Apr2002
   POMASS =   16.000; ZVAL   =    6.000    mass and valenz
   ENMAX  =  400.000; ENMIN  =  300.000 eV

  PAW_PBE Sr_sv 07Sep2000               :
  PAW_PBE O 08Apr2002                   :

 POSCAR: Sr1 O1
  positions in direct lattice
 exchange correlation table for  LEXCH =        8
   RHO(1)=    0.500       N(1)  =     2000
   RHO(2)=  100.500       N(2)  =     4000

 ion  position               nearest neighbor table
   1  0.500  0.500  0.500-   2 2.58   2 2.58   2 2.58   2 2.58   2 2.58   2 2.58
   2  0.000  0.000  0.000-   1 2.58   1 2.58   1 2.58   1 2.58   1 2.58   1 2.58

  LATTYP: Found a face centered cubic cell.
 ALAT       =     5.1675689807

  Lattice vectors:

 A1 = (  -2.5837844903,   0.0000000000,   2.5837844903)
 A2 = (   0.0000000000,   2.5837844903,   2.5837844903)
 A3 = (  -2.5837844903,   2.5837844903,   0.0000000000)

Analysis of symmetry for initial positions (statically):
 Subroutine PRICEL returns:
 Original cell was already a primitive cell.

 Routine SETGRP: Setting up the symmetry group for a
 face centered cubic supercell.

 Subroutine GETGRP returns: Found  8 space group operations
 (whereof  8 operations were pure point group operations)
 out of a pool of 48 trial point group operations.

The static configuration has the point symmetry C_4v.

Analysis of symmetry for dynamics (positions and initial velocities):
 Subroutine PRICEL returns:
 Original cell was already a primitive cell.

[...]

The dynamic configuration has the point symmetry C_4v.

 Subroutine INISYM returns: Found  8 space group operations
 (whereof  8 operations are pure point group operations),
 and found     1 'primitive' translations

 KPOINTS: pymatgen with grid density = 3000 / numb

Automatic generation of k-mesh.
Space group operators:
 irot       det(A)        alpha          n_x          n_y          n_z        tau_x        tau_y        tau_z
    1     1.000000     0.000000     1.000000     0.000000     0.000000     0.000000     0.000000     0.000000
    2     1.000000    90.000000    -1.000000     0.000000    -0.000000     0.000000     0.000000     0.000000
    3    -1.000000   180.000000     0.000000    -0.000000    -1.000000     0.000000     0.000000     0.000000
    4    -1.000000   180.000000     0.000000     0.707107     0.707107     0.000000     0.000000     0.000000
    5    -1.000000   180.000000     0.000000    -1.000000    -0.000000     0.000000     0.000000     0.000000
    6     1.000000    90.000000     1.000000     0.000000     0.000000     0.000000     0.000000     0.000000
    7     1.000000   180.000000     1.000000     0.000000     0.000000     0.000000     0.000000     0.000000
    8    -1.000000   180.000000    -0.000000    -0.707107     0.707107     0.000000     0.000000     0.000000

 Subroutine IBZKPT returns following result:

 Found    163 irreducible k-points:

 Following reciprocal coordinates:
            Coordinates               Weight
  0.000000  0.000000  0.000000      1.000000
  0.083333  0.000000  0.000000      8.000000
  0.166667  0.000000  0.000000      8.000000
  0.250000 -0.000000 -0.000000      8.000000
  0.333333 -0.000000 -0.000000      8.000000
  0.416667  0.000000  0.000000      8.000000
  0.500000 -0.000000 -0.000000      4.000000
  0.083333  0.083333 -0.000000      4.000000
  0.166667  0.083333 -0.000000     16.000000
  0.250000  0.083333  0.000000     16.000000
  0.333333  0.083333 -0.000000     16.000000
  0.416667  0.083333  0.000000     16.000000
  0.500000  0.083333  0.000000     16.000000
 -0.416667  0.083333 -0.000000     16.000000
 -0.333333  0.083333  0.000000     16.000000
 -0.250000  0.083333  0.000000     16.000000
 -0.166667  0.083333 -0.000000     16.000000
 -0.083333  0.083333 -0.000000      8.000000
  0.166667  0.166667 -0.000000      4.000000
  0.250000  0.166667 -0.000000     16.000000
  0.333333  0.166667  0.000000     16.000000
  0.416667  0.166667 -0.000000     16.000000
  0.500000  0.166667 -0.000000     16.000000
 -0.416667  0.166667  0.000000     16.000000
 -0.333333  0.166667 -0.000000     16.000000
 -0.250000  0.166667 -0.000000     16.000000
 -0.166667  0.166667 -0.000000      8.000000
  0.250000  0.250000 -0.000000      4.000000
  0.333333  0.250000 -0.000000     16.000000
  0.416667  0.250000 -0.000000     16.000000
  0.500000  0.250000  0.000000     16.000000
 -0.416667  0.250000 -0.000000     16.000000
 -0.333333  0.250000 -0.000000     16.000000
 -0.250000  0.250000 -0.000000      8.000000
  0.333333  0.333333 -0.000000      4.000000
  0.416667  0.333333 -0.000000     16.000000
  0.500000  0.333333 -0.000000     16.000000
 -0.416667  0.333333 -0.000000     16.000000
 -0.333333  0.333333  0.000000      8.000000
  0.416667  0.416667 -0.000000      4.000000
  0.500000  0.416667 -0.000000     16.000000
 -0.416667  0.416667 -0.000000      8.000000
  0.500000  0.500000 -0.000000      2.000000
  0.083333  0.000000  0.083333      2.000000
  0.166667 -0.000000  0.083333      8.000000
  0.250000  0.000000  0.083333      8.000000
  0.333333  0.000000  0.083333      8.000000
  0.416667  0.000000  0.083333      8.000000
  0.500000  0.000000  0.083333      8.000000
 -0.416667 -0.000000  0.083333      8.000000
 -0.333333 -0.000000  0.083333      8.000000
 -0.250000  0.000000  0.083333      8.000000
 -0.166667 -0.000000  0.083333      8.000000
 -0.083333 -0.000000  0.083333      4.000000
  0.250000  0.166667  0.083333      8.000000
  0.333333  0.166667  0.083333     16.000000
  0.416667  0.166667  0.083333     16.000000
  0.500000  0.166667  0.083333     16.000000
 -0.416667  0.166667  0.083333      8.000000
  0.166667  0.250000  0.083333      8.000000
[...]
  0.333333 -0.083333  0.250000      8.000000
  0.333333 -0.000000  0.333333      2.000000
  0.416667 -0.000000  0.333333      8.000000
  0.500000  0.000000  0.333333      8.000000
 -0.416667 -0.000000  0.333333      8.000000
 -0.333333 -0.000000  0.333333      4.000000
  0.416667 -0.250000  0.333333      8.000000
  0.416667 -0.166667  0.333333     16.000000
  0.500000 -0.166667  0.333333      4.000000
  0.416667 -0.083333  0.333333      8.000000
  0.416667 -0.000000  0.416667      2.000000
  0.500000  0.000000  0.416667      8.000000
 -0.416667 -0.000000  0.416667      4.000000
  0.500000 -0.083333  0.416667      4.000000
  0.500000  0.000000  0.500000      1.000000

 Following cartesian coordinates:
            Coordinates               Weight
  0.000000  0.000000  0.000000      1.000000
 -0.016126 -0.016126  0.016126      8.000000
 -0.032252 -0.032252  0.032252      8.000000
 -0.048379 -0.048379  0.048379      8.000000
 -0.064505 -0.064505  0.064505      8.000000
 -0.080631 -0.080631  0.080631      8.000000
 -0.096757 -0.096757  0.096757      4.000000
  0.000000  0.000000  0.032252      4.000000
 -0.016126 -0.016126  0.048379     16.000000
 -0.032252 -0.032252  0.064505     16.000000
 -0.048379 -0.048379  0.080631     16.000000
 -0.064505 -0.064505  0.096757     16.000000
 -0.080631 -0.080631  0.112884     16.000000
  0.096757  0.096757 -0.064505     16.000000
  0.080631  0.080631 -0.048379     16.000000
  0.064505  0.064505 -0.032252     16.000000
  0.048379  0.048379 -0.016126     16.000000
  0.032252  0.032252  0.000000      8.000000
 -0.000000 -0.000000  0.064505      4.000000
 -0.016126 -0.016126  0.080631     16.000000
 -0.032252 -0.032252  0.096757     16.000000
 -0.048379 -0.048379  0.112884     16.000000
 -0.064505 -0.064505  0.129010     16.000000
  0.112884  0.112884 -0.048379     16.000000
  0.096757  0.096757 -0.032252     16.000000
  0.080631  0.080631 -0.016126     16.000000
  0.064505  0.064505  0.000000      8.000000
 -0.000000 -0.000000  0.096757      4.000000
 -0.016126 -0.016126  0.112884     16.000000
 -0.032252 -0.032252  0.129010     16.000000
 -0.048379 -0.048379  0.145136     16.000000
  0.129010  0.129010 -0.032252     16.000000
  0.112884  0.112884 -0.016126     16.000000
  0.096757  0.096757  0.000000      8.000000
  0.000000  0.000000  0.129010      4.000000
 -0.016126 -0.016126  0.145136     16.000000
 -0.032252 -0.032252  0.161262     16.000000
  0.145136  0.145136 -0.016126     16.000000
  0.129010  0.129010  0.000000      8.000000
 -0.000000 -0.000000  0.161262      4.000000
 -0.016126 -0.016126  0.177388     16.000000
  0.161262  0.161262  0.000000      8.000000
 -0.000000 -0.000000  0.193515      2.000000
 -0.032252  0.000000  0.000000      2.000000
 -0.048379 -0.016126  0.016126      8.000000
 -0.064505 -0.032252  0.032252      8.000000
 -0.080631 -0.048379  0.048379      8.000000
 -0.096757 -0.064505  0.064505      8.000000
 -0.112884 -0.080631  0.080631      8.000000
  0.064505  0.096757 -0.096757      8.000000
  0.048379  0.080631 -0.080631      8.000000
  0.032252  0.064505 -0.064505      8.000000
  0.016126  0.048379 -0.048379      8.000000
 -0.000000  0.032252 -0.032252      4.000000
 -0.032252  0.000000  0.064505      8.000000
 -0.048379 -0.016126  0.080631     16.000000
 -0.064505 -0.032252  0.096757     16.000000
 -0.080631 -0.048379  0.112884     16.000000
  0.096757  0.129010 -0.064505      8.000000
  0.000000  0.032252  0.064505      8.000000
[...]
 -0.129010 -0.032252  0.000000      8.000000
 -0.129010  0.000000  0.000000      2.000000
 -0.145136 -0.016126  0.016126      8.000000
 -0.161262 -0.032252  0.032252      8.000000
  0.016126  0.145136 -0.145136      8.000000
  0.000000  0.129010 -0.129010      4.000000
 -0.193515 -0.064505 -0.032252      8.000000
 -0.177388 -0.048379 -0.016126     16.000000
 -0.193515 -0.064505 -0.000000      4.000000
 -0.161262 -0.032252  0.000000      8.000000
 -0.161262  0.000000 -0.000000      2.000000
 -0.177388 -0.016126  0.016126      8.000000
  0.000000  0.161262 -0.161262      4.000000
 -0.193515 -0.032252  0.000000      4.000000
 -0.193515  0.000000 -0.000000      1.000000

 Subroutine IBZKPT_HF returns following result:

 Found   1728 k-points in 1st BZ
 the following   1728 k-points will be used (e.g. in the exchange kernel)
 Following reciprocal coordinates:   # in IRBZ
  0.000000  0.000000  0.000000    0.00057870   1 t-inv F
  0.083333  0.000000  0.000000    0.00057870   2 t-inv F
  0.166667  0.000000  0.000000    0.00057870   3 t-inv F
  0.250000 -0.000000 -0.000000    0.00057870   4 t-inv F
  0.333333 -0.000000 -0.000000    0.00057870   5 t-inv F
  0.416667  0.000000  0.000000    0.00057870   6 t-inv F
  0.500000 -0.000000 -0.000000    0.00057870   7 t-inv F
  0.083333  0.083333 -0.000000    0.00057870   8 t-inv F
  0.166667  0.083333 -0.000000    0.00057870   9 t-inv F
  0.250000  0.083333  0.000000    0.00057870  10 t-inv F
  0.333333  0.083333 -0.000000    0.00057870  11 t-inv F
  0.416667  0.083333  0.000000    0.00057870  12 t-inv F
[...]
      9       5.4712      0.00000
     10       7.7711      0.00000
     11       7.7711      0.00000
     12       7.7711      0.00000
     13       9.9055      0.00000
     14       9.9055      0.00000
     15      14.2322      0.00000
     16      25.0907      0.00000

[...]

 soft charge-density along one line, spin component           1
         0         1         2         3         4         5         6         7         8         9
 total charge-density along one line

------------------------ aborting loop because EDIFF is reached ----------------------------------------

  FORCE on cell =-STRESS in cart. coord.  units (eV):
  Direction    XX          YY          ZZ          XY          YZ          ZX
  Alpha Z    97.68848    97.68848    97.68848
  Ewald    -350.32253  -350.32253  -350.32253    -0.00000     0.00000     0.00000
  Hartree    81.61830    81.61830    81.61830    -0.00000     0.00000    -0.00000
  E(xc)     -68.21477   -68.21477   -68.21477    -0.00000     0.00000    -0.00000
  Local      33.85139    33.85139    33.85139    -0.00002     0.00002    -0.00002
  n-local   -74.57956   -75.28238   -73.87674     1.73338    -0.24798    -0.64483
  augment    10.16040    10.16040    10.16040     0.00002    -0.00002     0.00002
  Kinetic   270.21488   270.65925   269.77051    -7.62627     1.09717     2.84664
  Fock        0.00000     0.00000     0.00000     0.00000     0.00000     0.00000
  Total       0.41659     0.41659     0.41659    -0.00000    -0.00000     0.00000
  in kB      19.34716    19.34716    19.34716    -0.00000    -0.00000     0.00000

 VOLUME and BASIS-vectors are now :
  energy-cutoff  :      520.00
  volume of cell :       34.50
      direct lattice vectors                 reciprocal lattice vectors
    -2.583784490  0.000000000  2.583784490    -0.193514591 -0.193514591  0.193514591
     0.000000000  2.583784490  2.583784490     0.193514591  0.193514591  0.193514591
    -2.583784490  2.583784490  0.000000000    -0.193514591  0.193514591 -0.193514591

  length of vectors
     3.654023068  3.654023068  3.654023068     0.335177104  0.335177104  0.335177104

 FORCES acting on ions
    electron-ion (+dipol)            ewald-force                    non-local-force                 convergence-correction
   0.222E-04 -.106E-11 -.226E-12   -.208E-04 0.102E-14 0.774E-14   -.146E-05 -.184E-24 -.193E-22   -.296E-06 0.147E-13 0.200E-13
   -.200E-04 -.831E-13 -.802E-13   0.208E-04 -.925E-15 -.943E-14   -.650E-06 -.298E-23 0.308E-23   0.285E-06 -.531E-11 -.530E-11
   0.218E-05 -.115E-11 -.307E-12   0.146E-14 0.989E-16 -.169E-14   -.211E-05 -.317E-23 -.162E-22   -.112E-07 -.529E-11 -.528E-11

 POSITION                                       TOTAL-FORCE (eV/Angst)
     -2.58378      2.58378      2.58378        -0.000000      0.000000     -0.000000
      0.00000      0.00000      0.00000         0.000000     -0.000000      0.000000
    total drift:                                0.000000     -0.000000     -0.000000

  FREE ENERGIE OF THE ION-ELECTRON SYSTEM (eV)
  free  energy   TOTEN  =       -12.05012506 eV

  energy  without entropy=      -12.05012506  energy(sigma->0) =      -12.05012506

 Found     4 degrees of freedom:

     directions for atom     1:  y
     directions for atom     2:  y
 Linear response reoptimize wavefunctions
 Linear response to external field (no local field effect), progress :
  Direction:   1
  LATTYP: Found a face centered cubic cell.
 ALAT       =     5.1675689807

[...]

----------------------------------------- Iteration    1(   1)  ---------------------------------------

 Free energy of the ion-electron system (eV)
  -Hartree energ DENC   =         0.00000000
  -V(xc)+E(xc)   XCENC  =         0.00000000
  PAW double counting   =         0.00000000        0.00000000
  entropy T*S    EENTRO =         0.00000000
  eigenvalues    EBANDS =        -0.26046468
  free energy    TOTEN  =        -0.26046468 eV

  energy without entropy =       -0.26046468

[...]

 change of polarisation eV/A/(eV/A) component  1 :     0.563    -0.059     0.013
 dielectric tensor                  component  1 :     3.954    -0.310     0.068

 Linear response to external field (no local field effect), progress :
  Direction:   2
  LATTYP: Found a face centered cubic cell.
 ALAT       =     5.1675689807

[...]

The dynamic configuration has the point symmetry C_1h.

[...]

 Linear response to external field (no local field effect), progress :
  Direction:   3
  LATTYP: Found a face centered cubic cell.
 ALAT       =     5.1675689807

[...]

 HEAD OF MICROSCOPIC STATIC DIELECTRIC TENSOR (INDEPENDENT PARTICLE, excluding Hartree and local field effects)
           3.954204    -0.000000     0.000000
          -0.000000     3.954390    -0.000000
           0.000000    -0.000000     3.954390

 Linear response to external field, progress :
  Direction:   1
  LATTYP: Found a face centered cubic cell.
 ALAT       =     5.1675689807

[...]

 PIEZOELECTRIC TENSOR FIELD DIRECTION 1  (e Angst)
     0.00004  0.00000 -0.00000           (  0.00000  0.00000 -0.00000)
    -0.00000  0.00001  0.00000           (  0.00000 -0.00000  0.00000)
    -0.00000  0.00000  0.00001           (  0.00000  0.00000 -0.00000)

 PIEZOELECTRIC TENSOR FIELD DIRECTION 1  (C/m^2)
     0.00002  0.00000 -0.00000
    -0.00000  0.00000  0.00000
    -0.00000  0.00000  0.00000

      POSITION         DIRECTION 1           BORN EFFECTIVE CHARGE    (rigid.aug.   ionic)
     -2.58378      2.58378      2.58378     2.44873 -0.00000 -0.00000 ( -0.54952 10.00000)
      0.00000      0.00000      0.00000    -2.44871  0.00000 -0.00000 ( -0.62070  6.00000)
    total drift (improves with k-points):   0.00003  0.00000 -0.00000

[...]

 Linear response to external field, progress :
  Direction:   3
  LATTYP: Found a face centered cubic cell.
 ALAT       =     5.1675689807

[...]

 change of polarisation eV/A/(eV/A) component  3 :    -0.000     0.001     0.535
 dielectric tensor                  component  3 :    -0.000     0.006     3.808

 PIEZOELECTRIC TENSOR FIELD DIRECTION 3  (e Angst)
    -0.00000  0.00000 -0.00006           ( -0.00000  0.00000 -0.00000)
     0.00000  0.00000  0.00000           (  0.00000 -0.00000  0.00000)
    -0.00006  0.00000  0.00001           ( -0.00000  0.00000 -0.00000)

 PIEZOELECTRIC TENSOR FIELD DIRECTION 3  (C/m^2)
    -0.00000  0.00000 -0.00003
     0.00000  0.00000  0.00000
    -0.00003  0.00000  0.00001

      POSITION         DIRECTION 3           BORN EFFECTIVE CHARGE    (rigid.aug.   ionic)
     -2.58378      2.58378      2.58378     0.00001  0.00000  2.44878 ( -0.54952 10.00000)
      0.00000      0.00000      0.00000    -0.00001  0.00000 -2.44884 ( -0.62070  6.00000)
    total drift (improves with k-points):   0.00000  0.00000 -0.00006

[...]

 MACROSCOPIC STATIC DIELECTRIC TENSOR (including local field effects in DFT)
           3.807885    -0.000000     0.000000
          -0.000000     3.808098    -0.000000
           0.000000    -0.000000     3.808098

 Linear response:
   Degrees of freedom DOF   =            4
 Linear response progress:
  Degree of freedom:   1/  4
  LATTYP: Found a face centered cubic cell.
 ALAT       =     5.1675689807

[...]

 INTERNAL STRAIN TENSOR  FOR ION    1  DIRECTION 1   (eV/Angst):
    -0.00037 -0.00000  0.00000
    -0.00000  0.00032 -0.00000
    -0.00000 -0.00000  0.00032

 POSITION                   FORCE-CONSTANT FOR ION    1 DIRECTION 1 (eV/Angst/Angst)
     -2.58378      2.58378      2.58378        -2.104902      0.000000      0.000000
      0.00000      0.00000      0.00000         2.104902     -0.000000     -0.000000
    total drift:                                0.000000      0.000000      0.000000

 BORN EFFECTIVE CHARGE FOR ION    1 DIRECTION 1 :   2.449  -0.000   0.000
                   rigid augmentation           :  -0.550  -0.000   0.000
                   ionic contribution           :  10.000  -0.000   0.000
                   Berry contribution           :  -7.002   0.000  -0.000

 Linear response progress:
  Degree of freedom:   2/  4
  LATTYP: Found a face centered cubic cell.
 ALAT       =     5.1675689807

[...]

 Linear response progress:
  Degree of freedom:   4/  4
  LATTYP: Found a face centered cubic cell.
 ALAT       =     5.1675689807

[...]

The dynamic configuration has the point symmetry C_1h.

[...]

----------------------------------------- Iteration    8(  14)  ---------------------------------------

 Broyden mixing:
  rms(total) = 0.77195E-05    rms(broyden)= 0.77194E-05
  rms(prec ) = 0.94306E-05
  weight for this iteration     100.00

 eigenvalues of (default mixing * dielectric matrix)
  average eigenvalue GAMMA=   1.7023
  2.9837  2.9837  2.6087  2.3624  1.8918  1.5918  1.2558  1.2558  0.9999  0.9999
  0.8370  0.6574

 Free energy of the ion-electron system (eV)
  -Hartree energ DENC   =        -0.12504149
  -V(xc)+E(xc)   XCENC  =         0.00036899
  PAW double counting   =         0.00450695       -0.00450663
  entropy T*S    EENTRO =        -0.00000000
  eigenvalues    EBANDS =        -0.24133357
  free energy    TOTEN  =        -0.36600575 eV

  energy without entropy =       -0.36600575

[...]

 k-point 476 :      -0.0000   -0.5000   -0.5000
  band No.  band energies     occupation
      1      -0.0001      0.00000
      2       0.0002      0.00000
      3      -0.0001      0.00000
      4      -0.0001      0.00000
      5      -0.0001      0.00000
      6       0.0002      0.00000
      7       0.0002      0.00000
      8       0.0002      0.00000
      9      -0.0000      0.00000
     10       0.0000      0.00000
     11      -0.0000      0.00000
     12       0.0001      0.00000
     13      -0.0001      0.00000
     14      -0.0001      0.00000
     15      -0.0000      0.00000
     16       0.0001      0.00000

------------------------ aborting loop because EDIFF is reached ----------------------------------------

 INTERNAL STRAIN TENSOR  FOR ION    2  DIRECTION 2   (eV/Angst):
     0.00004 -0.00128  0.00000
    -0.00129 -0.00002  0.00000
     0.00000  0.00000  0.00026

 POSITION                   FORCE-CONSTANT FOR ION    2 DIRECTION 2 (eV/Angst/Angst)
     -2.58378      2.58378      2.58378         0.000014      2.104541     -0.000000
      0.00000      0.00000      0.00000        -0.000014     -2.104541      0.000000
    total drift:                                0.000000      0.000000      0.000000

 BORN EFFECTIVE CHARGE FOR ION    2 DIRECTION 2 :   0.000  -2.449   0.000
                   rigid augmentation           :  -0.000  -0.621  -0.000
                   ionic contribution           :  -0.000   6.000  -0.000
                   Berry contribution           :   0.000  -7.828   0.000

  LATTYP: Found a face centered cubic cell.
 ALAT       =     5.1675689807

  Lattice vectors:

 A1 = (  -2.5837844903,   0.0000000000,   2.5837844903)
 A2 = (   0.0000000000,   2.5837844903,   2.5837844903)
 A3 = (  -2.5837844903,   2.5837844903,   0.0000000000)

Analysis of symmetry for initial positions (statically):
 Subroutine PRICEL returns:
 Original cell was already a primitive cell.

[...]

The static configuration has the point symmetry C_4v.

Analysis of symmetry for dynamics (positions and initial velocities):
 Subroutine PRICEL returns:
 Original cell was already a primitive cell.

 Routine SETGRP: Setting up the symmetry group for a
 face centered cubic supercell.

 Subroutine GETGRP returns: Found  8 space group operations
 (whereof  8 operations were pure point group operations)
 out of a pool of 48 trial point group operations.

The dynamic configuration has the point symmetry C_4v.

 Subroutine INISYM returns: Found  8 space group operations
 (whereof  8 operations are pure point group operations),
 and found     1 'primitive' translations

 MACROSCOPIC STATIC DIELECTRIC TENSOR (including local field effects in DFT)
           3.807885    -0.000000     0.000000
          -0.000000     3.808098    -0.000000
           0.000000    -0.000000     3.808098

 PIEZOELECTRIC TENSOR  for field in x, y, z        (e  Angst)
          XX          YY          ZZ          XY          YZ          ZX
  x     0.00004     0.00001     0.00001    -0.00000     0.00000    -0.00000
  y     0.00000     0.00004    -0.00006     0.00029    -0.00000     0.00000
  z    -0.00000     0.00000     0.00001     0.00000     0.00000    -0.00006

 PIEZOELECTRIC TENSOR  for field in x, y, z        (C/m^2)
          XX          YY          ZZ          XY          YZ          ZX
  x     0.00002     0.00000     0.00000    -0.00000    -0.00000     0.00000
  y    -0.00000    -0.00000    -0.00000     0.00005     0.00000    -0.00000
  z     0.00000     0.00000     0.00000    -0.00000    -0.00000     0.00005

 BORN EFFECTIVE CHARGES (in e, cummulative output)
 ion    1
    1     2.44872    -0.00000    -0.00000
    2    -0.00005     2.44886    -0.00000
    3     0.00001    -0.00000     2.44881
 ion    2
    1    -2.44872     0.00000     0.00000
    2     0.00005    -2.44886     0.00000
    3    -0.00001     0.00000    -2.44881

 INTERNAL STRAIN TENSOR FOR ION    1 for displacements in x,y,z  (eV/Angst):
          X           Y           Z          XY          YZ          ZX
  x    -0.00037     0.00032     0.00032     0.00000    -0.00000    -0.00000
  y     0.00000     0.00000    -0.00000    -0.00227    -0.00000     0.00000
  z    -0.00000     0.00000     0.00000     0.00000     0.00000    -0.00228

 INTERNAL STRAIN TENSOR FOR ION    2 for displacements in x,y,z  (eV/Angst):
          X           Y           Z          XY          YZ          ZX
  x     0.00111    -0.00068    -0.00068     0.00000     0.00000    -0.00000
  y     0.00000     0.00000     0.00000    -0.00129    -0.00000     0.00000
  z    -0.00000    -0.00000    -0.00000     0.00000     0.00000    -0.00128

 SECOND DERIVATIVES (NOT SYMMETRIZED)
               1X          1Y          1Z          2X          2Y          2Z
  1X    -2.104902    0.000000   -0.000000    2.104902   -0.000000    0.000000
  1Y     0.000000   -2.104878    0.000000   -0.000000    2.104878   -0.000000
  1Z    -0.000000    0.000000   -2.104878    0.000000   -0.000000    2.104878
  2X     2.104460   -0.000000    0.000000   -2.104460    0.000000   -0.000000
  2Y    -0.000000    2.104541   -0.000000    0.000000   -2.104541    0.000000
  2Z     0.000000   -0.000000    2.104541   -0.000000    0.000000   -2.104541

 Eigenvectors and eigenvalues of the dynamical matrix

   1 f  =    6.165878 THz    38.741354 2PiTHz  205.671544 cm-1    25.500031 meV
             X         Y         Z           dx          dy          dz
     -2.583784  2.583784  2.583784    -0.000000    0.070876   -0.386533
      0.000000  0.000000  0.000000     0.000000   -0.165847    0.904469

[...]

   3 f  =    6.165784 THz    38.740765 2PiTHz  205.668418 cm-1    25.499643 meV
             X         Y         Z           dx          dy          dz
     -2.583784  2.583784  2.583784    -0.392986   -0.000000    0.000000
      0.000000  0.000000  0.000000     0.919545    0.000000   -0.000000

   4 f/i=    0.000179 THz     0.001123 2PiTHz    0.005962 cm-1     0.000739 meV
             X         Y         Z           dx          dy          dz
     -2.583784  2.583784  2.583784     0.000000   -0.919436   -0.014334
      0.000000  0.000000  0.000000     0.000000   -0.392930   -0.006126

[...]

   6 f/i=    0.000234 THz     0.001469 2PiTHz    0.007801 cm-1     0.000967 meV
             X         Y         Z           dx          dy          dz
     -2.583784  2.583784  2.583784     0.919545    0.000000   -0.000000
      0.000000  0.000000  0.000000     0.392986    0.000000   -0.000000

 MACROSCOPIC STATIC DIELECTRIC TENSOR IONIC CONTRIBUTION
          14.943716    -0.000321     0.000067
          -0.000321    14.945289    -0.000000
           0.000067    -0.000000    14.944641

 ELASTIC MODULI IONIC CONTR (kBar)
 Direction    XX          YY          ZZ          XY          YZ          ZX
 XX          -0.0000      0.0000      0.0000      0.0000     -0.0000     -0.0000
 YY           0.0000     -0.0000     -0.0000     -0.0000      0.0000      0.0000
 ZZ           0.0000     -0.0000     -0.0000     -0.0000      0.0000      0.0000
 XY           0.0000     -0.0000     -0.0000     -0.0000     -0.0000      0.0000
 YZ          -0.0000      0.0000      0.0000     -0.0000     -0.0000      0.0000
 ZX          -0.0000      0.0000      0.0000      0.0000      0.0000     -0.0000

 PIEZOELECTRIC TENSOR IONIC CONTR  for field in x, y, z        (C/m^2)
          XX          YY          ZZ          XY          YZ          ZX
  x    -0.00040     0.00027     0.00027     0.00000    -0.00000    -0.00000
  y     0.00000    -0.00000    -0.00000    -0.00027    -0.00000     0.00000
  z    -0.00000     0.00000     0.00000     0.00000     0.00000    -0.00027