 vasp.5.4.4.18Apr17-6-g9f103f2a35 (build Aug 24 2017 11:22:49) complex

 executed on             LinuxIFC date 2023.12.25  13:07:39

 INCAR:
 POTCAR:    PAW_PBE K_sv 06Sep2000
 POTCAR:    PAW_PBE I 08Apr2002

 POTCAR:    PAW_PBE K_sv 06Sep2000
   VRHFIN =K:  3s3p4s

   TITEL  = PAW_PBE K_sv 06Sep2000
   POMASS =   39.098; ZVAL   =    9.000    mass and valenz
   ENMAX  =  259.264; ENMIN  =  194.448 eV

 POTCAR:    PAW_PBE I 08Apr2002
   VRHFIN =I : s2p5

   TITEL  = PAW_PBE I 08Apr2002
   POMASS =  126.904; ZVAL   =    7.000    mass and valenz
   ENMAX  =  175.647; ENMIN  =  131.735 eV

  PAW_PBE K_sv 06Sep2000                :
  PAW_PBE I 08Apr2002                   :

 POSCAR: K1 I1
  positions in direct lattice
 exchange correlation table for  LEXCH =        8
   RHO(1)=    0.500       N(1)  =     2000
   RHO(2)=  100.500       N(2)  =     4000

 ion  position               nearest neighbor table
   1  0.000  0.000  0.000-   2 3.54   2 3.54   2 3.54   2 3.54   2 3.54   2 3.54
   2  0.500  0.500  0.500-   1 3.54   1 3.54   1 3.54   1 3.54   1 3.54   1 3.54

  LATTYP: Found a face centered cubic cell.
 ALAT       =     7.0848706873

  Lattice vectors:

 A1 = (  -3.5424353436,   0.0000000000,   3.5424353436)
 A2 = (   0.0000000000,   3.5424353436,   3.5424353436)
 A3 = (  -3.5424353436,   3.5424353436,   0.0000000000)

Analysis of symmetry for initial positions (statically):
 Subroutine PRICEL returns:
 Original cell was already a primitive cell.

 Routine SETGRP: Setting up the symmetry group for a
 face centered cubic supercell.

 Subroutine GETGRP returns: Found  8 space group operations
 (whereof  8 operations were pure point group operations)
 out of a pool of 48 trial point group operations.

The static configuration has the point symmetry C_4v.

Analysis of symmetry for dynamics (positions and initial velocities):
 Subroutine PRICEL returns:
 Original cell was already a primitive cell.

[...]

The dynamic configuration has the point symmetry C_4v.

 Subroutine INISYM returns: Found  8 space group operations
 (whereof  8 operations are pure point group operations),
 and found     1 'primitive' translations

 KPOINTS: pymatgen with grid density = 3000 / numb

Automatic generation of k-mesh.
Space group operators:
 irot       det(A)        alpha          n_x          n_y          n_z        tau_x        tau_y        tau_z
    1     1.000000     0.000001     1.000000     0.000000     0.000000     0.000000     0.000000     0.000000
    2     1.000000    90.000000    -1.000000    -0.000000    -0.000000     0.000000     0.000000     0.000000
    3    -1.000000   180.000000    -0.000000     0.000000    -1.000000     0.000000     0.000000     0.000000
    4    -1.000000   180.000000    -0.000000     0.707107     0.707107     0.000000     0.000000     0.000000
    5    -1.000000   180.000000     0.000000    -1.000000     0.000000     0.000000     0.000000     0.000000
    6     1.000000    90.000000     1.000000     0.000000    -0.000000     0.000000     0.000000     0.000000
    7     1.000000   180.000000     1.000000     0.000000     0.000000     0.000000     0.000000     0.000000
    8    -1.000000   180.000000     0.000000    -0.707107     0.707107     0.000000     0.000000     0.000000

 Subroutine IBZKPT returns following result:

 Found    163 irreducible k-points:

 Following reciprocal coordinates:
            Coordinates               Weight
  0.000000  0.000000  0.000000      1.000000
  0.083333  0.000000  0.000000      8.000000
  0.166667  0.000000  0.000000      8.000000
  0.250000  0.000000  0.000000      8.000000
  0.333333  0.000000  0.000000      8.000000
  0.416667 -0.000000 -0.000000      8.000000
  0.500000  0.000000  0.000000      4.000000
  0.083333  0.083333 -0.000000      4.000000
  0.166667  0.083333 -0.000000     16.000000
  0.250000  0.083333 -0.000000     16.000000
  0.333333  0.083333  0.000000     16.000000
  0.416667  0.083333  0.000000     16.000000
  0.500000  0.083333 -0.000000     16.000000
 -0.416667  0.083333 -0.000000     16.000000
 -0.333333  0.083333  0.000000     16.000000
 -0.250000  0.083333 -0.000000     16.000000
 -0.166667  0.083333 -0.000000     16.000000
 -0.083333  0.083333 -0.000000      8.000000
  0.166667  0.166667 -0.000000      4.000000
  0.250000  0.166667 -0.000000     16.000000
  0.333333  0.166667  0.000000     16.000000
  0.416667  0.166667  0.000000     16.000000
  0.500000  0.166667 -0.000000     16.000000
 -0.416667  0.166667 -0.000000     16.000000
 -0.333333  0.166667 -0.000000     16.000000
 -0.250000  0.166667  0.000000     16.000000
 -0.166667  0.166667 -0.000000      8.000000
  0.250000  0.250000 -0.000000      4.000000
  0.333333  0.250000 -0.000000     16.000000
  0.416667  0.250000  0.000000     16.000000
  0.500000  0.250000  0.000000     16.000000
 -0.416667  0.250000 -0.000000     16.000000
 -0.333333  0.250000 -0.000000     16.000000
 -0.250000  0.250000 -0.000000      8.000000
  0.333333  0.333333 -0.000000      4.000000
  0.416667  0.333333 -0.000000     16.000000
  0.500000  0.333333 -0.000000     16.000000
 -0.416667  0.333333 -0.000000     16.000000
 -0.333333  0.333333 -0.000000      8.000000
  0.416667  0.416667 -0.000000      4.000000
  0.500000  0.416667 -0.000000     16.000000
 -0.416667  0.416667  0.000000      8.000000
  0.500000  0.500000 -0.000000      2.000000
  0.083333 -0.000000  0.083333      2.000000
  0.166667  0.000000  0.083333      8.000000
  0.250000  0.000000  0.083333      8.000000
  0.333333  0.000000  0.083333      8.000000
  0.416667 -0.000000  0.083333      8.000000
  0.500000 -0.000000  0.083333      8.000000
 -0.416667 -0.000000  0.083333      8.000000
 -0.333333  0.000000  0.083333      8.000000
 -0.250000 -0.000000  0.083333      8.000000
 -0.166667 -0.000000  0.083333      8.000000
 -0.083333 -0.000000  0.083333      4.000000
  0.250000  0.166667  0.083333      8.000000
  0.333333  0.166667  0.083333     16.000000
  0.416667  0.166667  0.083333     16.000000
  0.500000  0.166667  0.083333     16.000000
 -0.416667  0.166667  0.083333      8.000000
  0.166667  0.250000  0.083333      8.000000
[...]
  0.333333 -0.083333  0.250000      8.000000
  0.333333 -0.000000  0.333333      2.000000
  0.416667 -0.000000  0.333333      8.000000
  0.500000 -0.000000  0.333333      8.000000
 -0.416667  0.000000  0.333333      8.000000
 -0.333333 -0.000000  0.333333      4.000000
  0.416667 -0.250000  0.333333      8.000000
  0.416667 -0.166667  0.333333     16.000000
  0.500000 -0.166667  0.333333      4.000000
  0.416667 -0.083333  0.333333      8.000000
  0.416667 -0.000000  0.416667      2.000000
  0.500000 -0.000000  0.416667      8.000000
 -0.416667  0.000000  0.416667      4.000000
  0.500000 -0.083333  0.416667      4.000000
  0.500000 -0.000000  0.500000      1.000000

 Following cartesian coordinates:
            Coordinates               Weight
  0.000000  0.000000  0.000000      1.000000
 -0.011762 -0.011762  0.011762      8.000000
 -0.023524 -0.023524  0.023524      8.000000
 -0.035286 -0.035286  0.035286      8.000000
 -0.047049 -0.047049  0.047049      8.000000
 -0.058811 -0.058811  0.058811      8.000000
 -0.070573 -0.070573  0.070573      4.000000
  0.000000  0.000000  0.023524      4.000000
 -0.011762 -0.011762  0.035286     16.000000
 -0.023524 -0.023524  0.047049     16.000000
 -0.035286 -0.035286  0.058811     16.000000
 -0.047049 -0.047049  0.070573     16.000000
 -0.058811 -0.058811  0.082335     16.000000
  0.070573  0.070573 -0.047049     16.000000
  0.058811  0.058811 -0.035286     16.000000
  0.047049  0.047049 -0.023524     16.000000
  0.035286  0.035286 -0.011762     16.000000
  0.023524  0.023524  0.000000      8.000000
  0.000000  0.000000  0.047049      4.000000
 -0.011762 -0.011762  0.058811     16.000000
 -0.023524 -0.023524  0.070573     16.000000
 -0.035286 -0.035286  0.082335     16.000000
 -0.047049 -0.047049  0.094097     16.000000
  0.082335  0.082335 -0.035286     16.000000
  0.070573  0.070573 -0.023524     16.000000
  0.058811  0.058811 -0.011762     16.000000
  0.047049  0.047049  0.000000      8.000000
  0.000000  0.000000  0.070573      4.000000
 -0.011762 -0.011762  0.082335     16.000000
 -0.023524 -0.023524  0.094097     16.000000
 -0.035286 -0.035286  0.105859     16.000000
  0.094097  0.094097 -0.023524     16.000000
  0.082335  0.082335 -0.011762     16.000000
  0.070573  0.070573  0.000000      8.000000
  0.000000  0.000000  0.094097      4.000000
 -0.011762 -0.011762  0.105859     16.000000
 -0.023524 -0.023524  0.117622     16.000000
  0.105859  0.105859 -0.011762     16.000000
  0.094097  0.094097  0.000000      8.000000
  0.000000  0.000000  0.117622      4.000000
 -0.011762 -0.011762  0.129384     16.000000
  0.117622  0.117622 -0.000000      8.000000
  0.000000  0.000000  0.141146      2.000000
 -0.023524  0.000000  0.000000      2.000000
 -0.035286 -0.011762  0.011762      8.000000
 -0.047049 -0.023524  0.023524      8.000000
 -0.058811 -0.035286  0.035286      8.000000
 -0.070573 -0.047049  0.047049      8.000000
 -0.082335 -0.058811  0.058811      8.000000
  0.047049  0.070573 -0.070573      8.000000
  0.035286  0.058811 -0.058811      8.000000
  0.023524  0.047049 -0.047049      8.000000
  0.011762  0.035286 -0.035286      8.000000
  0.000000  0.023524 -0.023524      4.000000
 -0.023524  0.000000  0.047049      8.000000
 -0.035286 -0.011762  0.058811     16.000000
 -0.047049 -0.023524  0.070573     16.000000
 -0.058811 -0.035286  0.082335     16.000000
  0.070573  0.094097 -0.047049      8.000000
  0.000000  0.023524  0.047049      8.000000
[...]
 -0.094097 -0.023524  0.000000      8.000000
 -0.094097  0.000000  0.000000      2.000000
 -0.105859 -0.011762  0.011762      8.000000
 -0.117622 -0.023524  0.023524      8.000000
  0.011762  0.105859 -0.105859      8.000000
  0.000000  0.094097 -0.094097      4.000000
 -0.141146 -0.047049 -0.023524      8.000000
 -0.129384 -0.035286 -0.011762     16.000000
 -0.141146 -0.047049 -0.000000      4.000000
 -0.117622 -0.023524  0.000000      8.000000
 -0.117622 -0.000000  0.000000      2.000000
 -0.129384 -0.011762  0.011762      8.000000
  0.000000  0.117622 -0.117622      4.000000
 -0.141146 -0.023524 -0.000000      4.000000
 -0.141146  0.000000  0.000000      1.000000

 Subroutine IBZKPT_HF returns following result:

 Found   1728 k-points in 1st BZ
 the following   1728 k-points will be used (e.g. in the exchange kernel)
 Following reciprocal coordinates:   # in IRBZ
  0.000000  0.000000  0.000000    0.00057870   1 t-inv F
  0.083333  0.000000  0.000000    0.00057870   2 t-inv F
  0.166667  0.000000  0.000000    0.00057870   3 t-inv F
  0.250000  0.000000  0.000000    0.00057870   4 t-inv F
  0.333333  0.000000  0.000000    0.00057870   5 t-inv F
  0.416667 -0.000000 -0.000000    0.00057870   6 t-inv F
  0.500000  0.000000  0.000000    0.00057870   7 t-inv F
  0.083333  0.083333 -0.000000    0.00057870   8 t-inv F
  0.166667  0.083333 -0.000000    0.00057870   9 t-inv F
  0.250000  0.083333 -0.000000    0.00057870  10 t-inv F
  0.333333  0.083333  0.000000    0.00057870  11 t-inv F
  0.416667  0.083333  0.000000    0.00057870  12 t-inv F
  0.500000  0.083333 -0.000000    0.00057870  13 t-inv F
[...]
      9       3.4862      0.00000
     10       6.0421      0.00000
     11       6.0421      0.00000
     12       6.0421      0.00000
     13       6.7539      0.00000
     14       6.7539      0.00000
     15       9.3222      0.00000
     16      12.2152      0.00000

[...]

 soft charge-density along one line, spin component           1
         0         1         2         3         4         5         6         7         8         9
 total charge-density along one line

------------------------ aborting loop because EDIFF is reached ----------------------------------------

  FORCE on cell =-STRESS in cart. coord.  units (eV):
  Direction    XX          YY          ZZ          XY          YZ          ZX
  Alpha Z    28.23447    28.23447    28.23447
  Ewald    -248.41480  -248.41480  -248.41480     0.00000     0.00000    -0.00000
  Hartree    90.40931    90.40931    90.40931    -0.00000     0.00000    -0.00000
  E(xc)     -64.68466   -64.68466   -64.68466    -0.00000     0.00000    -0.00000
  Local     -57.04280   -57.04280   -57.04280    -0.00000     0.00000    -0.00000
  n-local    85.63241    86.21424    85.05057    -1.18077     0.15520     0.47759
  augment   -27.68430   -27.68430   -27.68430     0.00000    -0.00000     0.00000
  Kinetic   193.82974   194.38749   193.27200    -2.19976     0.30619     0.83959
  Fock        0.00000     0.00000     0.00000     0.00000     0.00000     0.00000
  Total       0.27937     0.27937     0.27937    -0.00000    -0.00000     0.00000
  in kB       5.03453     5.03453     5.03453    -0.00000    -0.00000     0.00000

 VOLUME and BASIS-vectors are now :
  energy-cutoff  :      520.00
  volume of cell :       88.91
      direct lattice vectors                 reciprocal lattice vectors
    -3.542435344  0.000000000  3.542435344    -0.141145837 -0.141145837  0.141145837
     0.000000000  3.542435344  3.542435344     0.141145837  0.141145837  0.141145837
    -3.542435344  3.542435344  0.000000000    -0.141145837  0.141145837 -0.141145837

  length of vectors
     5.009760107  5.009760107  5.009760107     0.244471760  0.244471760  0.244471760

 FORCES acting on ions
    electron-ion (+dipol)            ewald-force                    non-local-force                 convergence-correction
   -.120E-04 -.127E-13 -.289E-14   0.116E-04 -.359E-14 -.590E-14   0.654E-06 0.254E-24 0.213E-23   0.293E-07 0.511E-12 0.514E-12
   0.117E-04 -.103E-11 -.440E-12   -.116E-04 0.392E-14 0.486E-14   -.346E-06 0.148E-23 -.249E-23   -.198E-07 0.607E-13 0.623E-13
   -.317E-06 -.104E-11 -.443E-12   0.278E-15 0.326E-15 -.103E-14   0.308E-06 0.173E-23 -.358E-24   0.945E-08 0.572E-12 0.576E-12

 POSITION                                       TOTAL-FORCE (eV/Angst)
      0.00000      0.00000      0.00000         0.000000     -0.000000     -0.000000
     -3.54244      3.54244      3.54244        -0.000000      0.000000      0.000000
    total drift:                                0.000000     -0.000000      0.000000

  FREE ENERGIE OF THE ION-ELECTRON SYSTEM (eV)
  free  energy   TOTEN  =        -5.55898971 eV

  energy  without entropy=       -5.55898971  energy(sigma->0) =       -5.55898971

 Found     4 degrees of freedom:

     directions for atom     1:  y
     directions for atom     2:  y
 Linear response reoptimize wavefunctions
 Linear response to external field (no local field effect), progress :
  Direction:   1
  LATTYP: Found a face centered cubic cell.
 ALAT       =     7.0848706873

[...]

----------------------------------------- Iteration    1(   1)  ---------------------------------------

 Free energy of the ion-electron system (eV)
  -Hartree energ DENC   =         0.00000000
  -V(xc)+E(xc)   XCENC  =         0.00000000
  PAW double counting   =         0.00000000        0.00000000
  entropy T*S    EENTRO =         0.00000000
  eigenvalues    EBANDS =        -0.51624214
  free energy    TOTEN  =        -0.51624214 eV

  energy without entropy =       -0.51624214

[...]

 change of polarisation eV/A/(eV/A) component  1 :     1.077    -0.169     0.060
 dielectric tensor                  component  1 :     3.192    -0.344     0.122

 Linear response to external field (no local field effect), progress :
  Direction:   2
  LATTYP: Found a face centered cubic cell.
 ALAT       =     7.0848706873

[...]

The dynamic configuration has the point symmetry C_1h.

[...]

 Linear response to external field (no local field effect), progress :
  Direction:   3
  LATTYP: Found a face centered cubic cell.
 ALAT       =     7.0848706873

[...]

 HEAD OF MICROSCOPIC STATIC DIELECTRIC TENSOR (INDEPENDENT PARTICLE, excluding Hartree and local field effects)
           3.191971    -0.000000     0.000000
          -0.000000     3.191973    -0.000000
           0.000000    -0.000000     3.191973

 Linear response to external field, progress :
  Direction:   1
  LATTYP: Found a face centered cubic cell.
 ALAT       =     7.0848706873

[...]

 PIEZOELECTRIC TENSOR FIELD DIRECTION 1  (e Angst)
     0.00007 -0.00000  0.00000           ( -0.00000 -0.00000  0.00000)
    -0.00000  0.00008 -0.00000           (  0.00000  0.00000 -0.00000)
    -0.00000 -0.00000  0.00008           (  0.00000 -0.00000  0.00000)

 PIEZOELECTRIC TENSOR FIELD DIRECTION 1  (C/m^2)
     0.00001 -0.00000  0.00000
    -0.00000  0.00001 -0.00000
    -0.00000 -0.00000  0.00001

      POSITION         DIRECTION 1           BORN EFFECTIVE CHARGE    (rigid.aug.   ionic)
      0.00000      0.00000      0.00000     1.14384 -0.00000  0.00000 ( -1.48450  9.00000)
     -3.54244      3.54244      3.54244    -1.14391  0.00000 -0.00000 (  1.66206  7.00000)
    total drift (improves with k-points):  -0.00007 -0.00000  0.00000

[...]

 Linear response to external field, progress :
  Direction:   3
  LATTYP: Found a face centered cubic cell.
 ALAT       =     7.0848706873

[...]

 change of polarisation eV/A/(eV/A) component  3 :    -0.000     0.003     0.914
 dielectric tensor                  component  3 :    -0.000     0.007     2.860

 PIEZOELECTRIC TENSOR FIELD DIRECTION 3  (e Angst)
    -0.00001 -0.00000 -0.00009           ( -0.00000 -0.00000  0.00000)
    -0.00000 -0.00004 -0.00000           ( -0.00000 -0.00000 -0.00000)
    -0.00009 -0.00000 -0.00000           (  0.00000 -0.00000  0.00000)

 PIEZOELECTRIC TENSOR FIELD DIRECTION 3  (C/m^2)
    -0.00000 -0.00000 -0.00002
    -0.00000 -0.00001 -0.00000
    -0.00002 -0.00000 -0.00000

      POSITION         DIRECTION 3           BORN EFFECTIVE CHARGE    (rigid.aug.   ionic)
      0.00000      0.00000      0.00000     0.00000  0.00000  1.14384 ( -1.48450  9.00000)
     -3.54244      3.54244      3.54244     0.00000  0.00000 -1.14393 (  1.66206  7.00000)
    total drift (improves with k-points):   0.00000  0.00000 -0.00008

[...]

 MACROSCOPIC STATIC DIELECTRIC TENSOR (including local field effects in DFT)
           2.859723    -0.000000     0.000000
          -0.000000     2.859721    -0.000000
           0.000000    -0.000000     2.859721

 Linear response:
   Degrees of freedom DOF   =            4
 Linear response progress:
  Degree of freedom:   1/  4
  LATTYP: Found a face centered cubic cell.
 ALAT       =     7.0848706873

[...]

 INTERNAL STRAIN TENSOR  FOR ION    1  DIRECTION 1   (eV/Angst):
     0.00124  0.00000 -0.00000
    -0.00000 -0.00034 -0.00000
     0.00000 -0.00000 -0.00034

 POSITION                   FORCE-CONSTANT FOR ION    1 DIRECTION 1 (eV/Angst/Angst)
      0.00000      0.00000      0.00000        -1.049193     -0.000000     -0.000000
     -3.54244      3.54244      3.54244         1.049193      0.000000      0.000000
    total drift:                                0.000000      0.000000      0.000000

 BORN EFFECTIVE CHARGE FOR ION    1 DIRECTION 1 :   1.144  -0.000   0.000
                   rigid augmentation           :  -1.485  -0.000   0.000
                   ionic contribution           :   9.000  -0.000   0.000
                   Berry contribution           :  -6.372   0.000  -0.000

 Linear response progress:
  Degree of freedom:   2/  4
  LATTYP: Found a face centered cubic cell.
 ALAT       =     7.0848706873

[...]

 Linear response progress:
  Degree of freedom:   4/  4
  LATTYP: Found a face centered cubic cell.
 ALAT       =     7.0848706873

[...]

The dynamic configuration has the point symmetry C_1h.

[...]

----------------------------------------- Iteration    8(  13)  ---------------------------------------

 Broyden mixing:
  rms(total) = 0.72011E-05    rms(broyden)= 0.72010E-05
  rms(prec ) = 0.90578E-05
  weight for this iteration     100.00

 eigenvalues of (default mixing * dielectric matrix)
  average eigenvalue GAMMA=   1.8175
  3.4800  3.2444  2.6454  2.2484  1.7063  1.7063  1.1785  1.0448  0.9448  0.9448
  0.8493

 Free energy of the ion-electron system (eV)
  -Hartree energ DENC   =        -0.04651072
  -V(xc)+E(xc)   XCENC  =         0.00029562
  PAW double counting   =         0.00000985       -0.00000992
  entropy T*S    EENTRO =        -0.00000000
  eigenvalues    EBANDS =        -0.04050924
  free energy    TOTEN  =        -0.08672440 eV

  energy without entropy =       -0.08672440

[...]

 k-point 476 :      -0.0000   -0.5000   -0.5000
  band No.  band energies     occupation
      1      -0.0001      0.00000
      2      -0.0001      0.00000
      3      -0.0001      0.00000
      4      -0.0001      0.00000
      5       0.0002      0.00000
      6       0.0001      0.00000
      7       0.0001      0.00000
      8       0.0001      0.00000
      9       0.0000      0.00000
     10       0.0000      0.00000
     11       0.0000      0.00000
     12      -0.0000      0.00000
     13       0.0001      0.00000
     14      -0.0000      0.00000
     15      -0.0000      0.00000
     16       0.0001      0.00000

------------------------ aborting loop because EDIFF is reached ----------------------------------------

 INTERNAL STRAIN TENSOR  FOR ION    2  DIRECTION 2   (eV/Angst):
     0.00077  0.00015  0.00000
     0.00016  0.00089  0.00000
     0.00000  0.00000 -0.00003

 POSITION                   FORCE-CONSTANT FOR ION    2 DIRECTION 2 (eV/Angst/Angst)
      0.00000      0.00000      0.00000         0.000018      1.050018      0.000000
     -3.54244      3.54244      3.54244        -0.000018     -1.050018     -0.000000
    total drift:                               -0.000000      0.000000      0.000000

 BORN EFFECTIVE CHARGE FOR ION    2 DIRECTION 2 :  -0.000  -1.144   0.000
                   rigid augmentation           :  -0.000   1.662  -0.000
                   ionic contribution           :  -0.000   7.000  -0.000
                   Berry contribution           :  -0.000  -9.806   0.000

  LATTYP: Found a face centered cubic cell.
 ALAT       =     7.0848706873

  Lattice vectors:

 A1 = (  -3.5424353436,   0.0000000000,   3.5424353436)
 A2 = (   0.0000000000,   3.5424353436,   3.5424353436)
 A3 = (  -3.5424353436,   3.5424353436,   0.0000000000)

Analysis of symmetry for initial positions (statically):
 Subroutine PRICEL returns:
 Original cell was already a primitive cell.

[...]

The static configuration has the point symmetry C_4v.

Analysis of symmetry for dynamics (positions and initial velocities):
 Subroutine PRICEL returns:
 Original cell was already a primitive cell.

 Routine SETGRP: Setting up the symmetry group for a
 face centered cubic supercell.

 Subroutine GETGRP returns: Found  8 space group operations
 (whereof  8 operations were pure point group operations)
 out of a pool of 48 trial point group operations.

The dynamic configuration has the point symmetry C_4v.

 Subroutine INISYM returns: Found  8 space group operations
 (whereof  8 operations are pure point group operations),
 and found     1 'primitive' translations

 MACROSCOPIC STATIC DIELECTRIC TENSOR (including local field effects in DFT)
           2.859723    -0.000000     0.000000
          -0.000000     2.859721    -0.000000
           0.000000    -0.000000     2.859721

 PIEZOELECTRIC TENSOR  for field in x, y, z        (e  Angst)
          XX          YY          ZZ          XY          YZ          ZX
  x     0.00007     0.00008     0.00008    -0.00000    -0.00000     0.00000
  y    -0.00012    -0.00002    -0.00006     0.00023     0.00000    -0.00000
  z    -0.00001    -0.00004    -0.00000    -0.00000    -0.00000    -0.00009

 PIEZOELECTRIC TENSOR  for field in x, y, z        (C/m^2)
          XX          YY          ZZ          XY          YZ          ZX
  x     0.00001     0.00001     0.00001    -0.00000    -0.00000     0.00000
  y     0.00000    -0.00000    -0.00000     0.00001     0.00000    -0.00000
  z    -0.00000     0.00000     0.00000    -0.00000    -0.00000     0.00001

 BORN EFFECTIVE CHARGES (in e, cummulative output)
 ion    1
    1     1.14388    -0.00000     0.00000
    2    -0.00000     1.14388    -0.00000
    3    -0.00000    -0.00000     1.14388
 ion    2
    1    -1.14388     0.00000    -0.00000
    2     0.00000    -1.14388     0.00000
    3     0.00000     0.00000    -1.14388

 INTERNAL STRAIN TENSOR FOR ION    1 for displacements in x,y,z  (eV/Angst):
          X           Y           Z          XY          YZ          ZX
  x     0.00124    -0.00034    -0.00034     0.00000     0.00000    -0.00000
  y     0.00000     0.00000     0.00000    -0.00120    -0.00000     0.00000
  z    -0.00000     0.00000    -0.00000     0.00000     0.00000    -0.00119

 INTERNAL STRAIN TENSOR FOR ION    2 for displacements in x,y,z  (eV/Angst):
          X           Y           Z          XY          YZ          ZX
  x    -0.00150    -0.00003    -0.00003     0.00000     0.00000    -0.00000
  y     0.00000     0.00000     0.00000     0.00016     0.00000    -0.00000
  z     0.00000    -0.00000     0.00000    -0.00000    -0.00000     0.00015

 SECOND DERIVATIVES (NOT SYMMETRIZED)
               1X          1Y          1Z          2X          2Y          2Z
  1X    -1.049193    0.000000   -0.000000    1.049193   -0.000000    0.000000
  1Y     0.000000   -1.049424    0.000000   -0.000000    1.049424   -0.000000
  1Z    -0.000000    0.000000   -1.049424    0.000000   -0.000000    1.049424
  2X     1.050018   -0.000000    0.000000   -1.050018    0.000000   -0.000000
  2Y    -0.000000    1.050018   -0.000000    0.000000   -1.050018    0.000000
  2Z     0.000000   -0.000000    1.050018   -0.000000    0.000000   -1.050018

 Eigenvectors and eigenvalues of the dynamical matrix

   1 f  =    2.929523 THz    18.406736 2PiTHz   97.718366 cm-1    12.115538 meV
             X         Y         Z           dx          dy          dz
      0.000000  0.000000  0.000000    -0.000000    0.874283    0.000000
     -3.542435  3.542435  3.542435     0.000000   -0.485416   -0.000000

[...]

   3 f  =    2.929276 THz    18.405184 2PiTHz   97.710126 cm-1    12.114516 meV
             X         Y         Z           dx          dy          dz
      0.000000  0.000000  0.000000    -0.874260   -0.000000    0.000000
     -3.542435  3.542435  3.542435     0.485457    0.000000   -0.000000

   4 f/i=    0.000352 THz     0.002209 2PiTHz    0.011729 cm-1     0.001454 meV
             X         Y         Z           dx          dy          dz
      0.000000  0.000000  0.000000    -0.000000    0.379269    0.302960
     -3.542435  3.542435  3.542435    -0.000000    0.683100    0.545660

[...]

   6 f/i=    0.000489 THz     0.003071 2PiTHz    0.016304 cm-1     0.002021 meV
             X         Y         Z           dx          dy          dz
      0.000000  0.000000  0.000000     0.485457    0.000000    0.000000
     -3.542435  3.542435  3.542435     0.874260    0.000000    0.000000

 MACROSCOPIC STATIC DIELECTRIC TENSOR IONIC CONTRIBUTION
           2.537250    -0.000008    -0.000002
          -0.000008     2.537001     0.000000
          -0.000002     0.000000     2.536999

 ELASTIC MODULI IONIC CONTR (kBar)
 Direction    XX          YY          ZZ          XY          YZ          ZX
 XX          -0.0000      0.0000      0.0000      0.0000     -0.0000      0.0000
 YY           0.0000     -0.0000     -0.0000      0.0000      0.0000     -0.0000
 ZZ           0.0000     -0.0000     -0.0000      0.0000      0.0000     -0.0000
 XY           0.0000      0.0000      0.0000     -0.0000     -0.0000      0.0000
 YZ          -0.0000      0.0000      0.0000     -0.0000     -0.0000      0.0000
 ZX           0.0000     -0.0000     -0.0000      0.0000      0.0000     -0.0000

 PIEZOELECTRIC TENSOR IONIC CONTR  for field in x, y, z        (C/m^2)
          XX          YY          ZZ          XY          YZ          ZX
  x     0.00027    -0.00003    -0.00003     0.00000     0.00000    -0.00000
  y    -0.00000     0.00000     0.00000    -0.00013    -0.00000     0.00000
  z    -0.00000     0.00000     0.00000     0.00000     0.00000    -0.00013