 vasp.5.4.4.18Apr17-6-g9f103f2a35 (build Aug 24 2017 11:22:49) complex

 executed on             LinuxIFC date 2023.12.25  13:07:24

 INCAR:
 POTCAR:    PAW_PBE Al 04Jan2001
 POTCAR:    PAW_PBE P 06Sep2000

 POTCAR:    PAW_PBE Al 04Jan2001
   VRHFIN =Al: s2p1

   TITEL  = PAW_PBE Al 04Jan2001
   POMASS =   26.981; ZVAL   =    3.000    mass and valenz
   ENMAX  =  240.300; ENMIN  =  180.225 eV

 POTCAR:    PAW_PBE P 06Sep2000
   VRHFIN =P : s2p3

   TITEL  = PAW_PBE P 06Sep2000
   POMASS =   30.974; ZVAL   =    5.000    mass and valenz
   ENMAX  =  255.040; ENMIN  =  191.280 eV

  PAW_PBE Al 04Jan2001                  :
  PAW_PBE P 06Sep2000                   :

 POSCAR: Al1 P1
  positions in direct lattice
 exchange correlation table for  LEXCH =        8
   RHO(1)=    0.500       N(1)  =     2000
   RHO(2)=  100.500       N(2)  =     4000

 ion  position               nearest neighbor table
   1  0.000  0.000  0.000-   2 2.37   2 2.37   2 2.37   2 2.37
   2  0.750  0.750  0.750-   1 2.37   1 2.37   1 2.37   1 2.37

  LATTYP: Found a face centered cubic cell.
 ALAT       =     5.4729670056

  Lattice vectors:

 A1 = (  -2.7364835028,   0.0000000000,   2.7364835028)
 A2 = (   0.0000000000,   2.7364835028,   2.7364835028)
 A3 = (  -2.7364835028,   2.7364835028,   0.0000000000)

Analysis of symmetry for initial positions (statically):
 Subroutine PRICEL returns:
 Original cell was already a primitive cell.

 Routine SETGRP: Setting up the symmetry group for a
 face centered cubic supercell.

 Subroutine GETGRP returns: Found  6 space group operations
 (whereof  6 operations were pure point group operations)
 out of a pool of 48 trial point group operations.

The static configuration has the point symmetry C_3v.

Analysis of symmetry for dynamics (positions and initial velocities):
 Subroutine PRICEL returns:
 Original cell was already a primitive cell.

[...]

The dynamic configuration has the point symmetry C_3v.

 Subroutine INISYM returns: Found  6 space group operations
 (whereof  6 operations are pure point group operations),
 and found     1 'primitive' translations

 KPOINTS: pymatgen with grid density = 3000 / numb

Automatic generation of k-mesh.
Space group operators:
 irot       det(A)        alpha          n_x          n_y          n_z        tau_x        tau_y        tau_z
    1     1.000000     0.000000     1.000000     0.000000     0.000000     0.000000     0.000000     0.000000
    2    -1.000000   180.000000     0.707107     0.000000    -0.707107     0.000000     0.000000     0.000000
    3     1.000000   120.000000    -0.577350    -0.577350    -0.577350     0.000000     0.000000     0.000000
    4     1.000000   120.000000     0.577350     0.577350     0.577350     0.000000     0.000000     0.000000
    5    -1.000000   180.000000     0.707107    -0.707107    -0.000000     0.000000     0.000000     0.000000
    6    -1.000000   180.000000    -0.000000    -0.707107     0.707107     0.000000     0.000000     0.000000

 Subroutine IBZKPT returns following result:

 Found    189 irreducible k-points:

 Following reciprocal coordinates:
            Coordinates               Weight
  0.000000  0.000000  0.000000      1.000000
  0.083333 -0.000000  0.000000      6.000000
  0.166667  0.000000  0.000000      6.000000
  0.250000 -0.000000  0.000000      6.000000
  0.333333  0.000000  0.000000      6.000000
  0.416667 -0.000000 -0.000000      6.000000
  0.500000 -0.000000  0.000000      3.000000
 -0.000000  0.083333  0.000000      2.000000
  0.083333  0.083333  0.000000      6.000000
  0.166667  0.083333  0.000000      6.000000
  0.250000  0.083333  0.000000      6.000000
  0.333333  0.083333  0.000000      6.000000
  0.416667  0.083333  0.000000      6.000000
  0.500000  0.083333 -0.000000      6.000000
 -0.416667  0.083333 -0.000000      6.000000
 -0.333333  0.083333  0.000000      6.000000
 -0.250000  0.083333 -0.000000      6.000000
 -0.166667  0.083333 -0.000000      6.000000
 -0.083333  0.083333  0.000000      6.000000
  0.000000  0.166667  0.000000      2.000000
  0.083333  0.166667  0.000000      6.000000
  0.166667  0.166667  0.000000      6.000000
  0.250000  0.166667  0.000000      6.000000
  0.333333  0.166667  0.000000      6.000000
  0.416667  0.166667  0.000000      6.000000
  0.500000  0.166667 -0.000000      6.000000
 -0.416667  0.166667  0.000000      6.000000
 -0.333333  0.166667 -0.000000      6.000000
 -0.250000  0.166667  0.000000      6.000000
 -0.166667  0.166667 -0.000000      6.000000
 -0.083333  0.166667  0.000000      6.000000
 -0.000000  0.250000  0.000000      2.000000
  0.083333  0.250000  0.000000      6.000000
  0.166667  0.250000  0.000000      6.000000
  0.250000  0.250000  0.000000      6.000000
  0.333333  0.250000  0.000000      6.000000
  0.416667  0.250000  0.000000      6.000000
  0.500000  0.250000  0.000000      6.000000
 -0.416667  0.250000  0.000000      6.000000
 -0.333333  0.250000  0.000000      6.000000
 -0.250000  0.250000  0.000000      6.000000
 -0.166667  0.250000  0.000000      6.000000
 -0.083333  0.250000  0.000000      6.000000
  0.000000  0.333333 -0.000000      2.000000
  0.083333  0.333333  0.000000      6.000000
  0.166667  0.333333  0.000000      6.000000
  0.250000  0.333333  0.000000      6.000000
  0.333333  0.333333  0.000000      6.000000
  0.416667  0.333333  0.000000      6.000000
  0.500000  0.333333  0.000000      6.000000
 -0.416667  0.333333 -0.000000      6.000000
 -0.333333  0.333333 -0.000000      6.000000
 -0.250000  0.333333 -0.000000      6.000000
 -0.166667  0.333333  0.000000      6.000000
 -0.083333  0.333333  0.000000      6.000000
  0.000000  0.416667  0.000000      2.000000
  0.083333  0.416667 -0.000000      6.000000
  0.166667  0.416667  0.000000      6.000000
  0.250000  0.416667  0.000000      6.000000
  0.333333  0.416667  0.000000      6.000000
[...]
 -0.250000  0.083333  0.250000     12.000000
 -0.416667  0.333333  0.250000     12.000000
 -0.333333  0.333333  0.250000     12.000000
 -0.250000  0.333333  0.250000     12.000000
 -0.416667  0.416667  0.250000     12.000000
 -0.333333  0.416667  0.250000     12.000000
 -0.250000  0.416667  0.250000     12.000000
 -0.416667  0.500000  0.250000     12.000000
 -0.333333  0.500000  0.250000     12.000000
 -0.250000  0.500000  0.250000      6.000000
 -0.416667 -0.416667  0.250000     12.000000
 -0.333333 -0.416667  0.250000     12.000000
 -0.333333 -0.000000  0.333333      6.000000
 -0.333333  0.083333  0.333333     12.000000
 -0.333333  0.166667  0.333333      6.000000

 Following cartesian coordinates:
            Coordinates               Weight
  0.000000  0.000000  0.000000      1.000000
 -0.015226 -0.015226  0.015226      6.000000
 -0.030453 -0.030453  0.030453      6.000000
 -0.045679 -0.045679  0.045679      6.000000
 -0.060905 -0.060905  0.060905      6.000000
 -0.076132 -0.076132  0.076132      6.000000
 -0.091358 -0.091358  0.091358      3.000000
  0.015226  0.015226  0.015226      2.000000
  0.000000  0.000000  0.030453      6.000000
 -0.015226 -0.015226  0.045679      6.000000
 -0.030453 -0.030453  0.060905      6.000000
 -0.045679 -0.045679  0.076132      6.000000
 -0.060905 -0.060905  0.091358      6.000000
 -0.076132 -0.076132  0.106584      6.000000
  0.091358  0.091358 -0.060905      6.000000
  0.076132  0.076132 -0.045679      6.000000
  0.060905  0.060905 -0.030453      6.000000
  0.045679  0.045679 -0.015226      6.000000
  0.030453  0.030453  0.000000      6.000000
  0.030453  0.030453  0.030453      2.000000
  0.015226  0.015226  0.045679      6.000000
  0.000000  0.000000  0.060905      6.000000
 -0.015226 -0.015226  0.076132      6.000000
 -0.030453 -0.030453  0.091358      6.000000
 -0.045679 -0.045679  0.106584      6.000000
 -0.060905 -0.060905  0.121811      6.000000
  0.106584  0.106584 -0.045679      6.000000
  0.091358  0.091358 -0.030453      6.000000
  0.076132  0.076132 -0.015226      6.000000
  0.060905  0.060905  0.000000      6.000000
  0.045679  0.045679  0.015226      6.000000
  0.045679  0.045679  0.045679      2.000000
  0.030453  0.030453  0.060905      6.000000
  0.015226  0.015226  0.076132      6.000000
  0.000000  0.000000  0.091358      6.000000
 -0.015226 -0.015226  0.106584      6.000000
 -0.030453 -0.030453  0.121811      6.000000
 -0.045679 -0.045679  0.137037      6.000000
  0.121811  0.121811 -0.030453      6.000000
  0.106584  0.106584 -0.015226      6.000000
  0.091358  0.091358  0.000000      6.000000
  0.076132  0.076132  0.015226      6.000000
  0.060905  0.060905  0.030453      6.000000
  0.060905  0.060905  0.060905      2.000000
  0.045679  0.045679  0.076132      6.000000
  0.030453  0.030453  0.091358      6.000000
  0.015226  0.015226  0.106584      6.000000
 -0.000000  0.000000  0.121811      6.000000
 -0.015226 -0.015226  0.137037      6.000000
 -0.030453 -0.030453  0.152264      6.000000
  0.137037  0.137037 -0.015226      6.000000
  0.121811  0.121811  0.000000      6.000000
  0.106584  0.106584  0.015226      6.000000
  0.091358  0.091358  0.030453      6.000000
  0.076132  0.076132  0.045679      6.000000
  0.076132  0.076132  0.076132      2.000000
  0.060905  0.060905  0.091358      6.000000
  0.045679  0.045679  0.106584      6.000000
  0.030453  0.030453  0.121811      6.000000
  0.015226  0.015226  0.137037      6.000000
[...]
  0.015226  0.106584 -0.076132     12.000000
  0.091358  0.182716 -0.060905     12.000000
  0.076132  0.167490 -0.045679     12.000000
  0.060905  0.152264 -0.030453     12.000000
  0.106584  0.197943 -0.045679     12.000000
  0.091358  0.182716 -0.030453     12.000000
  0.076132  0.167490 -0.015226     12.000000
  0.121811  0.213169 -0.030453     12.000000
  0.106584  0.197943 -0.015226     12.000000
  0.091358  0.182716  0.000000      6.000000
 -0.045679  0.045679 -0.197943     12.000000
 -0.060905  0.030453 -0.182716     12.000000
  0.000000  0.121811 -0.121811      6.000000
  0.015226  0.137037 -0.106584     12.000000
  0.030453  0.152264 -0.091358      6.000000

 Subroutine IBZKPT_HF returns following result:

 Found   1728 k-points in 1st BZ
 the following   1728 k-points will be used (e.g. in the exchange kernel)
 Following reciprocal coordinates:   # in IRBZ
  0.000000  0.000000  0.000000    0.00057870   1 t-inv F
  0.083333 -0.000000  0.000000    0.00057870   2 t-inv F
  0.166667  0.000000  0.000000    0.00057870   3 t-inv F
  0.250000 -0.000000  0.000000    0.00057870   4 t-inv F
  0.333333  0.000000  0.000000    0.00057870   5 t-inv F
  0.416667 -0.000000 -0.000000    0.00057870   6 t-inv F
  0.500000 -0.000000  0.000000    0.00057870   7 t-inv F
 -0.000000  0.083333  0.000000    0.00057870   8 t-inv F
  0.083333  0.083333  0.000000    0.00057870   9 t-inv F
  0.166667  0.083333  0.000000    0.00057870  10 t-inv F
  0.250000  0.083333  0.000000    0.00057870  11 t-inv F
  0.333333  0.083333  0.000000    0.00057870  12 t-inv F
  0.416667  0.083333  0.000000    0.00057870  13 t-inv F
  0.500000  0.083333 -0.000000    0.00057870  14 t-inv F
 -0.416667  0.083333 -0.000000    0.00057870  15 t-inv F
 -0.333333  0.083333  0.000000    0.00057870  16 t-inv F
 -0.250000  0.083333 -0.000000    0.00057870  17 t-inv F
[...]

 average (electrostatic) potential at core
  the test charge radii are     1.0406  0.9587
  (the norm of the test charge is              1.0000)
       1 -75.1246       2 -82.6383

 E-fermi :   4.5561     XC(G=0):  -9.1815     alpha+bet :-11.3769

 k-point     1 :       0.0000    0.0000    0.0000
  band No.  band energies     occupation
      1      -6.9498      2.00000
      2       4.5147      2.00000
      3       4.5147      2.00000
      4       4.5147      2.00000
      5       7.7599      0.00000
      6       9.0668      0.00000
      7       9.0668      0.00000
      8       9.0668      0.00000

[...]

 soft charge-density along one line, spin component           1
         0         1         2         3         4         5         6         7         8         9
 total charge-density along one line

------------------------ aborting loop because EDIFF is reached ----------------------------------------

  FORCE on cell =-STRESS in cart. coord.  units (eV):
  Direction    XX          YY          ZZ          XY          YZ          ZX
  Alpha Z     3.69562     3.69562     3.69562
  Ewald     -78.90746   -78.90746   -78.90746    -0.00001    -0.00001    -0.00001
  Hartree     8.36929     8.36929     8.36929    -0.00000    -0.00000    -0.00000
  E(xc)     -25.66660   -25.66660   -25.66660     0.00000     0.00000     0.00000
  Local     -37.04633   -37.04633   -37.04633     0.00001     0.00001     0.00001
  n-local    76.85201    76.28336    73.88421    -1.42286     0.56716     0.85569
  augment   -11.18827   -11.18827   -11.18827     0.00000    -0.00000     0.00000
  Kinetic    65.48069    66.89257    64.01424    -2.12341     1.19036     0.93305
  Fock        0.00000     0.00000     0.00000     0.00000     0.00000     0.00000
  Total       0.39195     0.39195     0.39195    -0.00000    -0.00000    -0.00000
  in kB      15.32258    15.32258    15.32258    -0.00003    -0.00003    -0.00003

 VOLUME and BASIS-vectors are now :
  energy-cutoff  :      520.00
  volume of cell :       40.98
      direct lattice vectors                 reciprocal lattice vectors
    -2.736483503  0.000000000  2.736483503    -0.182716249 -0.182716249  0.182716249
     0.000000000  2.736483503  2.736483503     0.182716249  0.182716249  0.182716249
    -2.736483503  2.736483503  0.000000000    -0.182716249  0.182716249 -0.182716249

  length of vectors
     3.869972083  3.869972083  3.869972083     0.316473826  0.316473826  0.316473826

 FORCES acting on ions
    electron-ion (+dipol)            ewald-force                    non-local-force                 convergence-correction
   -.313E-05 -.258E-05 -.257E-05   0.232E-05 0.232E-05 0.232E-05   0.164E-05 0.164E-05 0.164E-05   -.237E-07 -.237E-07 -.237E-07
   0.594E-06 0.547E-06 0.546E-06   -.232E-05 -.232E-05 -.232E-05   -.426E-07 -.426E-07 -.426E-07   0.533E-06 0.533E-06 0.533E-06
   -.254E-05 -.203E-05 -.203E-05   0.372E-16 -.406E-16 -.110E-16   0.160E-05 0.160E-05 0.160E-05   0.510E-06 0.510E-06 0.510E-06

 POSITION                                       TOTAL-FORCE (eV/Angst)
      0.00000      0.00000      0.00000         0.000001      0.000001      0.000001
     -4.10473      4.10473      4.10473        -0.000001     -0.000001     -0.000001
    total drift:                               -0.000000      0.000000      0.000000

  FREE ENERGIE OF THE ION-ELECTRON SYSTEM (eV)
  free  energy   TOTEN  =       -10.37421835 eV

  energy  without entropy=      -10.37421835  energy(sigma->0) =      -10.37421835

 Found     2 degrees of freedom:

     directions for atom     1:  x
     directions for atom     2:  x
 Linear response reoptimize wavefunctions
 Linear response to external field (no local field effect), progress :
  Direction:   1
  LATTYP: Found a face centered cubic cell.
 ALAT       =     5.4729670056

[...]

The dynamic configuration has the point symmetry C_1h.

[...]

----------------------------------------- Iteration    1(   1)  ---------------------------------------

 Free energy of the ion-electron system (eV)
  -Hartree energ DENC   =         0.00000000
  -V(xc)+E(xc)   XCENC  =         0.00000000
  PAW double counting   =         0.00000000        0.00000000
  entropy T*S    EENTRO =         0.00000000
  eigenvalues    EBANDS =        -0.94586423
  free energy    TOTEN  =        -0.94586423 eV

  energy without entropy =       -0.94586423

[...]

 change of polarisation eV/A/(eV/A) component  1 :     1.954    -0.561     0.193
 dielectric tensor                  component  1 :     9.627    -2.477     0.851

 Linear response to external field (no local field effect), progress :
  Direction:   2
  LATTYP: Found a face centered cubic cell.
 ALAT       =     5.4729670056

[...]

 Linear response to external field (no local field effect), progress :
  Direction:   3
  LATTYP: Found a face centered cubic cell.
 ALAT       =     5.4729670056

[...]

 HEAD OF MICROSCOPIC STATIC DIELECTRIC TENSOR (INDEPENDENT PARTICLE, excluding Hartree and local field effects)
           8.746909    -0.001681    -0.001681
          -0.001681     8.746909    -0.001681
          -0.001681    -0.001681     8.746909

 Linear response to external field, progress :
  Direction:   1
  LATTYP: Found a face centered cubic cell.
 ALAT       =     5.4729670056

[...]

 PIEZOELECTRIC TENSOR FIELD DIRECTION 1  (e Angst)
    -0.00022  0.00017  0.00017           ( -0.00001  0.00000  0.00000)
     0.00017  0.00019 -1.75421           (  0.00000 -0.00001  0.02335)
     0.00017 -1.75421  0.00019           (  0.00000  0.02335 -0.00001)

 PIEZOELECTRIC TENSOR FIELD DIRECTION 1  (C/m^2)
    -0.00009  0.00007  0.00007
     0.00007  0.00008 -0.68578
     0.00007 -0.68578  0.00008

      POSITION         DIRECTION 1           BORN EFFECTIVE CHARGE    (rigid.aug.   ionic)
      0.00000      0.00000      0.00000     2.23680  0.00012  0.00012 (  0.03291  3.00000)
     -4.10473      4.10473      4.10473    -2.23749  0.00011  0.00011 (  0.51865  5.00000)
    total drift (improves with k-points):  -0.00069  0.00022  0.00022

[...]

 Linear response to external field, progress :
  Direction:   3
  LATTYP: Found a face centered cubic cell.
 ALAT       =     5.4729670056

[...]

 change of polarisation eV/A/(eV/A) component  3 :    -0.140     0.139     1.608
 dielectric tensor                  component  3 :    -0.618     0.613     8.100

 PIEZOELECTRIC TENSOR FIELD DIRECTION 3  (e Angst)
    -0.00005 -1.74704 -0.00008           ( -0.00001  0.03092  0.00000)
    -1.74704 -0.00005 -0.00008           (  0.03092 -0.00001  0.00000)
    -0.00008 -0.00008 -0.00045           (  0.00000  0.00000 -0.00001)

 PIEZOELECTRIC TENSOR FIELD DIRECTION 3  (C/m^2)
    -0.00002 -0.68297 -0.00003
    -0.68297 -0.00002 -0.00003
    -0.00003 -0.00003 -0.00018

      POSITION         DIRECTION 3           BORN EFFECTIVE CHARGE    (rigid.aug.   ionic)
      0.00000      0.00000      0.00000     0.00022  0.00022  2.23693 (  0.03291  3.00000)
     -4.10473      4.10473      4.10473     0.00007  0.00007 -2.23761 (  0.51865  5.00000)
    total drift (improves with k-points):   0.00029  0.00029 -0.00067

[...]

 MACROSCOPIC STATIC DIELECTRIC TENSOR (including local field effects in DFT)
           8.100206    -0.001869    -0.001869
          -0.001869     8.100206    -0.001869
          -0.001869    -0.001869     8.100206

 Linear response:
   Degrees of freedom DOF   =            2
 Linear response progress:
  Degree of freedom:   1/  2
  LATTYP: Found a face centered cubic cell.
 ALAT       =     5.4729670056

[...]

 INTERNAL STRAIN TENSOR  FOR ION    1  DIRECTION 1   (eV/Angst):
     0.00476 -0.09353 -0.09353
     0.04849 -0.00238  8.11334
     0.04849  8.11334 -0.00238

 POSITION                   FORCE-CONSTANT FOR ION    1 DIRECTION 1 (eV/Angst/Angst)
      0.00000      0.00000      0.00000       -10.054990     -0.000013     -0.000013
     -4.10473      4.10473      4.10473        10.054990      0.000013      0.000013
    total drift:                                0.000000      0.000000     -0.000000

 BORN EFFECTIVE CHARGE FOR ION    1 DIRECTION 1 :   2.237   0.000   0.000
                   rigid augmentation           :   0.033   0.000  -0.000
                   ionic contribution           :   3.000   0.000  -0.000
                   Berry contribution           :  -0.796   0.000   0.000

 Linear response progress:
  Degree of freedom:   2/  2
  LATTYP: Found a face centered cubic cell.
 ALAT       =     5.4729670056

[...]

The dynamic configuration has the point symmetry C_1h.

[...]

----------------------------------------- Iteration    7(  18)  ---------------------------------------

 Broyden mixing:
  rms(total) = 0.35959E-04    rms(broyden)= 0.35959E-04
  rms(prec ) = 0.53691E-04
  weight for this iteration     100.00

 eigenvalues of (default mixing * dielectric matrix)
  average eigenvalue GAMMA=   1.6513
  3.2366  3.2366  2.8019  2.6366  2.1325  2.1325  1.2097  1.2097  1.2163  1.1335
  1.1335  0.9797  0.9023  0.9023  0.8052  0.7530

 Free energy of the ion-electron system (eV)
  -Hartree energ DENC   =        -0.02396143
  -V(xc)+E(xc)   XCENC  =         0.00009424
  PAW double counting   =         0.00320206       -0.00320326
  entropy T*S    EENTRO =        -0.00000000
  eigenvalues    EBANDS =        -0.02580705
  free energy    TOTEN  =        -0.04967545 eV

  energy without entropy =       -0.04967545

[...]

 k-point 476 :      -0.5000   -0.5000   -0.5000
  band No.  band energies     occupation
      1      -0.4258      0.00000
      2       1.4434      0.00000
      3      -2.3234      0.00000
      4       1.2608      0.00000
      5      -0.4322      0.00000
      6      -2.8584      0.00000
      7       1.3787      0.00000
      8      -0.2932      0.00000

------------------------ aborting loop because EDIFF is reached ----------------------------------------

 INTERNAL STRAIN TENSOR  FOR ION    2  DIRECTION 1   (eV/Angst):
    -0.00102  0.12951  0.12951
    -0.10154 -0.00034 -8.19534
    -0.10154 -8.19534 -0.00034

 POSITION                   FORCE-CONSTANT FOR ION    2 DIRECTION 1 (eV/Angst/Angst)
      0.00000      0.00000      0.00000        10.053924      0.000045      0.000045
     -4.10473      4.10473      4.10473       -10.053924     -0.000045     -0.000045
    total drift:                                0.000000      0.000000      0.000000

 BORN EFFECTIVE CHARGE FOR ION    2 DIRECTION 1 :  -2.237   0.000   0.000
                   rigid augmentation           :   0.519   0.000  -0.000
                   ionic contribution           :   5.000   0.000  -0.000
                   Berry contribution           :  -7.756   0.000   0.000

  LATTYP: Found a face centered cubic cell.
 ALAT       =     5.4729670056

  Lattice vectors:

 A1 = (  -2.7364835028,   0.0000000000,   2.7364835028)
 A2 = (   0.0000000000,   2.7364835028,   2.7364835028)
 A3 = (  -2.7364835028,   2.7364835028,   0.0000000000)

Analysis of symmetry for initial positions (statically):
 Subroutine PRICEL returns:
 Original cell was already a primitive cell.

[...]

The static configuration has the point symmetry C_3v.

Analysis of symmetry for dynamics (positions and initial velocities):
 Subroutine PRICEL returns:
 Original cell was already a primitive cell.

 Routine SETGRP: Setting up the symmetry group for a
 face centered cubic supercell.

 Subroutine GETGRP returns: Found  6 space group operations
 (whereof  6 operations were pure point group operations)
 out of a pool of 48 trial point group operations.

The dynamic configuration has the point symmetry C_3v.

 Subroutine INISYM returns: Found  6 space group operations
 (whereof  6 operations are pure point group operations),
 and found     1 'primitive' translations

 MACROSCOPIC STATIC DIELECTRIC TENSOR (including local field effects in DFT)
           8.100206    -0.001869    -0.001869
          -0.001869     8.100206    -0.001869
          -0.001869    -0.001869     8.100206

 PIEZOELECTRIC TENSOR  for field in x, y, z        (e  Angst)
          XX          YY          ZZ          XY          YZ          ZX
  x    -0.00022     0.00019     0.00019     0.00017    -1.75421     0.00017
  y    -0.00029     0.00040    -0.00029     0.00320     0.00320    -1.75489
  z    -0.00005    -0.00005    -0.00045    -1.74704    -0.00008    -0.00008

 PIEZOELECTRIC TENSOR  for field in x, y, z        (C/m^2)
          XX          YY          ZZ          XY          YZ          ZX
  x    -0.00004    -0.00002    -0.00002     0.00043    -0.68493     0.00043
  y    -0.00002    -0.00004    -0.00002     0.00043     0.00043    -0.68493
  z    -0.00002    -0.00002    -0.00004    -0.68493     0.00043     0.00043

 BORN EFFECTIVE CHARGES (in e, cummulative output)
 ion    1
    1     2.23715     0.00000     0.00000
    2    -0.00015     2.23721    -0.00015
    3     0.00008     0.00008     2.23727
 ion    2
    1    -2.23715    -0.00000    -0.00000
    2     0.00015    -2.23721     0.00015
    3    -0.00008    -0.00008    -2.23727

 INTERNAL STRAIN TENSOR FOR ION    1 for displacements in x,y,z  (eV/Angst):
          X           Y           Z          XY          YZ          ZX
  x     0.00476    -0.00238    -0.00238     0.04849     8.11334    -0.09353
  y    -0.00238     0.00476    -0.00238    -0.09353     0.04849     8.11334
  z    -0.00238    -0.00238     0.00476     8.11334    -0.09353     0.04849

 INTERNAL STRAIN TENSOR FOR ION    2 for displacements in x,y,z  (eV/Angst):
          X           Y           Z          XY          YZ          ZX
  x    -0.00102    -0.00034    -0.00034    -0.10154    -8.19534     0.12951
  y    -0.00034    -0.00102    -0.00034     0.12951    -0.10154    -8.19534
  z    -0.00034    -0.00034    -0.00102    -8.19534     0.12951    -0.10154

 SECOND DERIVATIVES (NOT SYMMETRIZED)
               1X          1Y          1Z          2X          2Y          2Z
  1X   -10.054990   -0.000013   -0.000013   10.054990    0.000013    0.000013
  1Y    -0.000013  -10.054990   -0.000013    0.000013   10.054990    0.000013
  1Z    -0.000013   -0.000013  -10.054990    0.000013    0.000013   10.054990
  2X    10.053924    0.000045    0.000045  -10.053924   -0.000045   -0.000045
  2Y     0.000045   10.053924    0.000045   -0.000045  -10.053924   -0.000045
  2Z     0.000045    0.000045   10.053924   -0.000045   -0.000045  -10.053924

 Eigenvectors and eigenvalues of the dynamical matrix

   1 f  =   13.054186 THz    82.021872 2PiTHz  435.440773 cm-1    53.987795 meV
             X         Y         Z           dx          dy          dz
      0.000000  0.000000  0.000000    -0.422088   -0.422088   -0.422088
     -4.104725  4.104725  4.104725     0.393923    0.393923    0.393923

[...]

   3 f  =   13.054132 THz    82.021531 2PiTHz  435.438963 cm-1    53.987570 meV
             X         Y         Z           dx          dy          dz
      0.000000  0.000000  0.000000    -0.466881    0.555550   -0.088669
     -4.104725  4.104725  4.104725     0.435726   -0.518478    0.082752

   4 f/i=    0.000325 THz     0.002039 2PiTHz    0.010826 cm-1     0.001342 meV
             X         Y         Z           dx          dy          dz
      0.000000  0.000000  0.000000     0.393923    0.393924    0.393923
     -4.104725  4.104725  4.104725     0.422088    0.422088    0.422087

[...]

   6 f/i=    0.000356 THz     0.002236 2PiTHz    0.011868 cm-1     0.001471 meV
             X         Y         Z           dx          dy          dz
      0.000000  0.000000  0.000000    -0.322340   -0.232319    0.554660
     -4.104725  4.104725  4.104725    -0.345389   -0.248931    0.594320

 MACROSCOPIC STATIC DIELECTRIC TENSOR IONIC CONTRIBUTION
           2.197799    -0.000145     0.000075
          -0.000145     2.197913    -0.000073
           0.000075    -0.000073     2.198040

 ELASTIC MODULI IONIC CONTR (kBar)
 Direction    XX          YY          ZZ          XY          YZ          ZX
 XX          -0.0000      0.0000      0.0000      0.0310     -0.0918      0.0338
 YY           0.0000     -0.0000      0.0000      0.0338      0.0310     -0.0918
 ZZ           0.0000      0.0000     -0.0000     -0.0918      0.0338      0.0310
 XY           0.0310      0.0338     -0.0918   -258.6064      1.1907      1.1907
 YZ          -0.0918      0.0310      0.0338      1.1907   -258.6064      1.1907
 ZX           0.0338     -0.0918      0.0310      1.1907      1.1907   -258.6064

 PIEZOELECTRIC TENSOR IONIC CONTR  for field in x, y, z        (C/m^2)
          XX          YY          ZZ          XY          YZ          ZX
  x     0.00025    -0.00009    -0.00009     0.00652     0.70930    -0.00970
  y    -0.00009     0.00025    -0.00009    -0.00975     0.00648     0.70931
  z    -0.00009    -0.00009     0.00025     0.70933    -0.00968     0.00655