 vasp.5.4.4.18Apr17-6-g9f103f2a35 (build Aug 24 2017 11:22:49) complex

 executed on             LinuxIFC date 2023.12.25  13:07:41

 INCAR:
 POTCAR:    PAW_PBE Cs_sv 08Apr2002
 POTCAR:    PAW_PBE Pb_d 06Sep2000
 POTCAR:    PAW_PBE Cl 06Sep2000

 POTCAR:    PAW_PBE Cs_sv 08Apr2002
   VRHFIN =Cs: 5s5p6s

   TITEL  = PAW_PBE Cs_sv 08Apr2002
   POMASS =  132.900; ZVAL   =    9.000    mass and valenz
   ENMAX  =  220.318; ENMIN  =  165.238 eV

 POTCAR:    PAW_PBE Pb_d 06Sep2000
   VRHFIN =Pb:

   TITEL  = PAW_PBE Pb_d 06Sep2000
   POMASS =  207.200; ZVAL   =   14.000    mass and valenz
   ENMAX  =  237.835; ENMIN  =  178.376 eV

 POTCAR:    PAW_PBE Cl 06Sep2000
   VRHFIN =Cl: s2p5

   TITEL  = PAW_PBE Cl 06Sep2000
   POMASS =   35.453; ZVAL   =    7.000    mass and valenz
   ENMAX  =  262.472; ENMIN  =  196.854 eV

  PAW_PBE Cs_sv 08Apr2002               :
  PAW_PBE Pb_d 06Sep2000                :
  PAW_PBE Cl 06Sep2000                  :

 POSCAR: Cs1 Pb1 Cl3
  positions in direct lattice
 exchange correlation table for  LEXCH =        8
   RHO(1)=    0.500       N(1)  =     2000
   RHO(2)=  100.500       N(2)  =     4000

 ion  position               nearest neighbor table
   1  0.000  0.000  0.000-
   2  0.500  0.500  0.500-   3 2.84   4 2.84   5 2.84   5 2.84   4 2.84   3 2.84
   3  0.000  0.500  0.500-   2 2.84   2 2.84
   4  0.500  0.000  0.500-   2 2.84   2 2.84
   5  0.500  0.500  0.000-   2 2.84   2 2.84

  LATTYP: Found a simple cubic cell.
 ALAT       =     5.6798443337

  Lattice vectors:

 A1 = (   5.6798443337,   0.0000000000,   0.0000000000)
 A2 = (   0.0000000000,   5.6798443337,   0.0000000000)
 A3 = (   0.0000000000,   0.0000000000,   5.6798443337)

Analysis of symmetry for initial positions (statically):
 Subroutine PRICEL returns:
 Original cell was already a primitive cell.

 Routine SETGRP: Setting up the symmetry group for a
 simple cubic supercell.

 Subroutine GETGRP returns: Found  6 space group operations
 (whereof  6 operations were pure point group operations)
 out of a pool of 48 trial point group operations.

The static configuration has the point symmetry C_3v.

Analysis of symmetry for dynamics (positions and initial velocities):
 Subroutine PRICEL returns:
 Original cell was already a primitive cell.

[...]

The dynamic configuration has the point symmetry C_3v.

 Subroutine INISYM returns: Found  6 space group operations
 (whereof  6 operations are pure point group operations),
 and found     1 'primitive' translations

 KPOINTS: pymatgen with grid density = 3000 / numb

Automatic generation of k-mesh.
Space group operators:
 irot       det(A)        alpha          n_x          n_y          n_z        tau_x        tau_y        tau_z
    1     1.000000     0.000001     1.000000     0.000000     0.000000     0.000000     0.000000     0.000000
    2     1.000000   120.000000    -0.577350    -0.577350    -0.577350     0.000000     0.000000     0.000000
    3     1.000000   120.000000     0.577350     0.577350     0.577350     0.000000     0.000000     0.000000
    4    -1.000000   180.000000     0.000000    -0.707107     0.707107     0.000000     0.000000     0.000000
    5    -1.000000   180.000000     0.707107    -0.707107     0.000000     0.000000     0.000000     0.000000
    6    -1.000000   180.000000     0.707107     0.000000    -0.707107     0.000000     0.000000     0.000000

 Subroutine IBZKPT returns following result:

 Found     65 irreducible k-points:

 Following reciprocal coordinates:
            Coordinates               Weight
  0.000000  0.000000  0.000000      1.000000
  0.125000  0.000000  0.000000      6.000000
  0.250000  0.000000  0.000000      6.000000
  0.375000  0.000000  0.000000      6.000000
  0.500000  0.000000  0.000000      3.000000
  0.125000  0.125000  0.000000      6.000000
  0.250000  0.125000  0.000000     12.000000
  0.375000  0.125000  0.000000     12.000000
  0.500000  0.125000  0.000000     12.000000
 -0.375000  0.125000  0.000000     12.000000
 -0.250000  0.125000  0.000000     12.000000
 -0.125000  0.125000  0.000000      6.000000
  0.250000  0.250000  0.000000      6.000000
  0.375000  0.250000  0.000000     12.000000
  0.500000  0.250000  0.000000     12.000000
 -0.375000  0.250000  0.000000     12.000000
 -0.250000  0.250000  0.000000      6.000000
  0.375000  0.375000  0.000000      6.000000
  0.500000  0.375000  0.000000     12.000000
 -0.375000  0.375000  0.000000      6.000000
  0.500000  0.500000  0.000000      3.000000
  0.125000  0.125000  0.125000      2.000000
  0.250000  0.125000  0.125000      6.000000
  0.375000  0.125000  0.125000      6.000000
  0.500000  0.125000  0.125000      6.000000
 -0.375000  0.125000  0.125000      6.000000
 -0.250000  0.125000  0.125000      6.000000
 -0.125000  0.125000  0.125000      6.000000
  0.250000  0.250000  0.125000      6.000000
  0.375000  0.250000  0.125000     12.000000
  0.500000  0.250000  0.125000     12.000000
 -0.375000  0.250000  0.125000     12.000000
 -0.250000  0.250000  0.125000     12.000000
 -0.125000  0.250000  0.125000     12.000000
  0.375000  0.375000  0.125000      6.000000
  0.500000  0.375000  0.125000     12.000000
 -0.375000  0.375000  0.125000     12.000000
 -0.250000  0.375000  0.125000     12.000000
 -0.125000  0.375000  0.125000     12.000000
  0.500000  0.500000  0.125000      6.000000
 -0.375000  0.500000  0.125000     12.000000
 -0.250000  0.500000  0.125000     12.000000
 -0.125000  0.500000  0.125000      6.000000
 -0.375000 -0.375000  0.125000      6.000000
 -0.250000 -0.375000  0.125000     12.000000
 -0.250000 -0.250000  0.125000      6.000000
  0.250000  0.250000  0.250000      2.000000
  0.375000  0.250000  0.250000      6.000000
  0.500000  0.250000  0.250000      6.000000
 -0.375000  0.250000  0.250000      6.000000
 -0.250000  0.250000  0.250000      6.000000
  0.375000  0.375000  0.250000      6.000000
  0.500000  0.375000  0.250000     12.000000
 -0.375000  0.375000  0.250000     12.000000
 -0.250000  0.375000  0.250000     12.000000
  0.500000  0.500000  0.250000      6.000000
 -0.375000  0.500000  0.250000     12.000000
 -0.250000  0.500000  0.250000      6.000000
 -0.375000 -0.375000  0.250000      6.000000
  0.375000  0.375000  0.375000      2.000000
  0.500000  0.375000  0.375000      6.000000
 -0.375000  0.375000  0.375000      6.000000
  0.500000  0.500000  0.375000      6.000000
 -0.375000  0.500000  0.375000      6.000000
  0.500000  0.500000  0.500000      1.000000

 Following cartesian coordinates:
            Coordinates               Weight
  0.000000  0.000000  0.000000      1.000000
  0.022008  0.000000  0.000000      6.000000
  0.044015  0.000000  0.000000      6.000000
  0.066023  0.000000  0.000000      6.000000
  0.088031  0.000000  0.000000      3.000000
  0.022008  0.022008  0.000000      6.000000
  0.044015  0.022008  0.000000     12.000000
  0.066023  0.022008  0.000000     12.000000
  0.088031  0.022008  0.000000     12.000000
 -0.066023  0.022008  0.000000     12.000000
 -0.044015  0.022008  0.000000     12.000000
 -0.022008  0.022008  0.000000      6.000000
  0.044015  0.044015  0.000000      6.000000
  0.066023  0.044015  0.000000     12.000000
  0.088031  0.044015  0.000000     12.000000
 -0.066023  0.044015  0.000000     12.000000
 -0.044015  0.044015  0.000000      6.000000
  0.066023  0.066023  0.000000      6.000000
  0.088031  0.066023  0.000000     12.000000
 -0.066023  0.066023  0.000000      6.000000
  0.088031  0.088031  0.000000      3.000000
  0.022008  0.022008  0.022008      2.000000
  0.044015  0.022008  0.022008      6.000000
  0.066023  0.022008  0.022008      6.000000
  0.088031  0.022008  0.022008      6.000000
 -0.066023  0.022008  0.022008      6.000000
 -0.044015  0.022008  0.022008      6.000000
 -0.022008  0.022008  0.022008      6.000000
  0.044015  0.044015  0.022008      6.000000
  0.066023  0.044015  0.022008     12.000000
  0.088031  0.044015  0.022008     12.000000
 -0.066023  0.044015  0.022008     12.000000
 -0.044015  0.044015  0.022008     12.000000
 -0.022008  0.044015  0.022008     12.000000
  0.066023  0.066023  0.022008      6.000000
  0.088031  0.066023  0.022008     12.000000
 -0.066023  0.066023  0.022008     12.000000
 -0.044015  0.066023  0.022008     12.000000
 -0.022008  0.066023  0.022008     12.000000
  0.088031  0.088031  0.022008      6.000000
 -0.066023  0.088031  0.022008     12.000000
 -0.044015  0.088031  0.022008     12.000000
 -0.022008  0.088031  0.022008      6.000000
 -0.066023 -0.066023  0.022008      6.000000
 -0.044015 -0.066023  0.022008     12.000000
 -0.044015 -0.044015  0.022008      6.000000
  0.044015  0.044015  0.044015      2.000000
  0.066023  0.044015  0.044015      6.000000
  0.088031  0.044015  0.044015      6.000000
 -0.066023  0.044015  0.044015      6.000000
 -0.044015  0.044015  0.044015      6.000000
  0.066023  0.066023  0.044015      6.000000
  0.088031  0.066023  0.044015     12.000000
 -0.066023  0.066023  0.044015     12.000000
 -0.044015  0.066023  0.044015     12.000000
  0.088031  0.088031  0.044015      6.000000
 -0.066023  0.088031  0.044015     12.000000
 -0.044015  0.088031  0.044015      6.000000
 -0.066023 -0.066023  0.044015      6.000000
  0.066023  0.066023  0.066023      2.000000
  0.088031  0.066023  0.066023      6.000000
 -0.066023  0.066023  0.066023      6.000000
  0.088031  0.088031  0.066023      6.000000
 -0.066023  0.088031  0.066023      6.000000
  0.088031  0.088031  0.088031      1.000000

 Subroutine IBZKPT_HF returns following result:

 Found    512 k-points in 1st BZ
 the following    512 k-points will be used (e.g. in the exchange kernel)
 Following reciprocal coordinates:   # in IRBZ
  0.000000  0.000000  0.000000    0.00195312   1 t-inv F
  0.125000  0.000000  0.000000    0.00195312   2 t-inv F
  0.250000  0.000000  0.000000    0.00195312   3 t-inv F
  0.375000  0.000000  0.000000    0.00195312   4 t-inv F
  0.500000  0.000000  0.000000    0.00195312   5 t-inv F
  0.125000  0.125000  0.000000    0.00195312   6 t-inv F
  0.250000  0.125000  0.000000    0.00195312   7 t-inv F
  0.375000  0.125000  0.000000    0.00195312   8 t-inv F
  0.500000  0.125000  0.000000    0.00195312   9 t-inv F
 -0.375000  0.125000  0.000000    0.00195312  10 t-inv F
 -0.250000  0.125000  0.000000    0.00195312  11 t-inv F
 -0.125000  0.125000  0.000000    0.00195312  12 t-inv F
  0.250000  0.250000  0.000000    0.00195312  13 t-inv F
  0.375000  0.250000  0.000000    0.00195312  14 t-inv F
  0.500000  0.250000  0.000000    0.00195312  15 t-inv F
 -0.375000  0.250000  0.000000    0.00195312  16 t-inv F
 -0.250000  0.250000  0.000000    0.00195312  17 t-inv F
  0.375000  0.375000  0.000000    0.00195312  18 t-inv F
  0.500000  0.375000  0.000000    0.00195312  19 t-inv F
 -0.375000  0.375000  0.000000    0.00195312  20 t-inv F
  0.500000  0.500000  0.000000    0.00195312  21 t-inv F
  0.125000  0.125000  0.125000    0.00195312  22 t-inv F
  0.250000  0.125000  0.125000    0.00195312  23 t-inv F
  0.375000  0.125000  0.125000    0.00195312  24 t-inv F
  0.500000  0.125000  0.125000    0.00195312  25 t-inv F
 -0.375000  0.125000  0.125000    0.00195312  26 t-inv F
[...]

      POSITION         DIRECTION 1           BORN EFFECTIVE CHARGE    (rigid.aug.   ionic)
      0.00000      0.00000      0.00000     1.31018  0.00000  0.00000 (  2.00913  9.00000)
      2.83992      2.83992      2.83992     3.89107 -0.00000 -0.00000 ( -5.56555 14.00000)
      0.00000      2.83992      2.83992    -3.72961 -0.00000 -0.00000 (  0.95000  7.00000)
      2.83992      0.00000      2.83992    -0.73597  0.00000 -0.00000 (  0.95000  7.00000)
      2.83992      2.83992      0.00000    -0.73597 -0.00000  0.00000 (  0.95000  7.00000)
    total drift (improves with k-points):  -0.00031 -0.00000 -0.00000

[...]

 Linear response to external field, progress :
  Direction:   3
  LATTYP: Found a simple cubic cell.
 ALAT       =     5.6798443337

[...]

 change of polarisation eV/A/(eV/A) component  3 :     0.070    -0.070     2.814
 dielectric tensor                  component  3 :     0.069    -0.069     3.779

 PIEZOELECTRIC TENSOR FIELD DIRECTION 3  (e Angst)
    -0.00013 -0.00000 -0.00000           ( -0.00000 -0.00000 -0.00000)
    -0.00000 -0.00013 -0.00000           ( -0.00000 -0.00000 -0.00000)
    -0.00000 -0.00000  0.00127           ( -0.00000 -0.00000 -0.00000)

 PIEZOELECTRIC TENSOR FIELD DIRECTION 3  (C/m^2)
    -0.00001 -0.00000 -0.00000
    -0.00000 -0.00001 -0.00000
    -0.00000 -0.00000  0.00011

      POSITION         DIRECTION 3           BORN EFFECTIVE CHARGE    (rigid.aug.   ionic)
      0.00000      0.00000      0.00000     0.00000  0.00000  1.31018 (  2.00913  9.00000)
      2.83992      2.83992      2.83992    -0.00000 -0.00000  3.89107 ( -5.56555 14.00000)
      0.00000      2.83992      2.83992     0.00000 -0.00000 -0.73597 (  0.95000  7.00000)
      2.83992      0.00000      2.83992    -0.00000  0.00000 -0.73597 (  0.95000  7.00000)
      2.83992      2.83992      0.00000    -0.00000 -0.00000 -3.72961 (  0.95000  7.00000)
    total drift (improves with k-points):  -0.00000 -0.00000 -0.00030

[...]

 MACROSCOPIC STATIC DIELECTRIC TENSOR (including local field effects in DFT)
           3.779170     0.000000     0.000000
           0.000000     3.779170     0.000000
           0.000000     0.000000     3.779170

 Linear response:
   Degrees of freedom DOF   =            4
 Linear response progress:
  Degree of freedom:   1/  4
  LATTYP: Found a simple cubic cell.
 ALAT       =     5.6798443337

[...]

 INTERNAL STRAIN TENSOR  FOR ION    1  DIRECTION 1   (eV/Angst):
    -0.00018 -0.00006 -0.00006
    -0.00006 -0.00000 -0.00005
    -0.00006 -0.00005 -0.00000

 POSITION                   FORCE-CONSTANT FOR ION    1 DIRECTION 1 (eV/Angst/Angst)
      0.00000      0.00000      0.00000        -0.146698     -0.000030     -0.000030
      2.83992      2.83992      2.83992         0.243648      0.000006      0.000006
      0.00000      2.83992      2.83992         0.093805      0.000006      0.000006
      2.83992      0.00000      2.83992        -0.095378      0.000011      0.000007
      2.83992      2.83992      0.00000        -0.095378      0.000007      0.000011
    total drift:                                0.000000      0.000000      0.000000

 BORN EFFECTIVE CHARGE FOR ION    1 DIRECTION 1 :   1.310  -0.000  -0.000
                   rigid augmentation           :   2.009   0.000   0.000
                   ionic contribution           :   9.000   0.000   0.000
                   Berry contribution           :  -9.699  -0.000  -0.000

 Linear response progress:
  Degree of freedom:   2/  4
  LATTYP: Found a simple cubic cell.
 ALAT       =     5.6798443337

[...]

The dynamic configuration has the point symmetry C_1h.

[...]

 Linear response progress:
  Degree of freedom:   4/  4
  LATTYP: Found a simple cubic cell.
 ALAT       =     5.6798443337

[...]

The dynamic configuration has the point symmetry C_1 .

[...]

----------------------------------------- Iteration   11(  17)  ---------------------------------------

 Broyden mixing:
  rms(total) = 0.52917E-05    rms(broyden)= 0.52915E-05
  rms(prec ) = 0.58881E-05
  weight for this iteration     100.00

 eigenvalues of (default mixing * dielectric matrix)
  average eigenvalue GAMMA=   1.5471
  3.4607  3.0905  2.6214  2.3996  1.7362  1.2707  1.2707  1.3125  1.3125  1.0574
  0.9525  0.9130  0.7545  0.5272  0.5272

 Free energy of the ion-electron system (eV)
  -Hartree energ DENC   =        -0.11439513
  -V(xc)+E(xc)   XCENC  =         0.00242521
  PAW double counting   =         0.00004771       -0.00004797
  entropy T*S    EENTRO =        -0.00000000
  eigenvalues    EBANDS =        -0.09194576
  free energy    TOTEN  =        -0.20391593 eV

  energy without entropy =       -0.20391593

[...]

 k-point 260 :       0.3750    0.5000    0.5000
  band No.  band energies     occupation
      1      -0.0000      0.00000
      2       0.0000      0.00000
      3      -0.0000      0.00000
      4      -0.0001      0.00000
      5      -0.0000      0.00000
      6       0.0001      0.00000
      7      -0.0000      0.00000
      8       0.0000      0.00000
      9       0.0000      0.00000
     10       0.0000      0.00000
     11      -0.0000      0.00000
     12      -0.0000      0.00000
     13      -0.0000      0.00000
     14      -0.0000      0.00000
     15       0.0000      0.00000
     16       0.0000      0.00000
     17       0.0000      0.00000
     18      -0.0000      0.00000
     19       0.0000      0.00000
     20       0.0000      0.00000
     21      -0.0000      0.00000
     22       0.0000      0.00000
     23      -0.0000      0.00000
     24       0.0000      0.00000
     25       0.0000      0.00000
     26       0.0000      0.00000
     27       0.0000      0.00000
     28      -0.0000      0.00000
     29       0.0000      0.00000
     30      -0.0000      0.00000
     31      -0.0000      0.00000
     32      -0.0000      0.00000

------------------------ aborting loop because EDIFF is reached ----------------------------------------

 INTERNAL STRAIN TENSOR  FOR ION    3  DIRECTION 2   (eV/Angst):
     0.00015  0.00003  0.00003
     0.00003  0.00018  0.00012
     0.00002  0.00011 -0.00001

 POSITION                   FORCE-CONSTANT FOR ION    3 DIRECTION 2 (eV/Angst/Angst)
      0.00000      0.00000      0.00000         0.000021     -0.094133      0.000011
      2.83992      2.83992      2.83992         0.000038      0.176885      0.000003
      0.00000      2.83992      2.83992        -0.000100     -0.174918     -0.000023
      2.83992      0.00000      2.83992         0.000023      0.154877      0.000002
      2.83992      2.83992      0.00000         0.000018     -0.062712      0.000006
    total drift:                               -0.000000      0.000000      0.000000

 BORN EFFECTIVE CHARGE FOR ION    3 DIRECTION 2 :   0.000  -0.736  -0.000
                   rigid augmentation           :   0.000   0.950   0.000
                   ionic contribution           :   0.000   7.000   0.000
                   Berry contribution           :   0.000  -8.686  -0.000

  LATTYP: Found a simple cubic cell.
 ALAT       =     5.6798443337

  Lattice vectors:

 A1 = (   5.6798443337,   0.0000000000,   0.0000000000)
 A2 = (   0.0000000000,   5.6798443337,   0.0000000000)
 A3 = (   0.0000000000,   0.0000000000,   5.6798443337)

Analysis of symmetry for initial positions (statically):
 Subroutine PRICEL returns:
 Original cell was already a primitive cell.

[...]

The static configuration has the point symmetry C_3v.

Analysis of symmetry for dynamics (positions and initial velocities):
 Subroutine PRICEL returns:
 Original cell was already a primitive cell.

 Routine SETGRP: Setting up the symmetry group for a
 simple cubic supercell.

 Subroutine GETGRP returns: Found  6 space group operations
 (whereof  6 operations were pure point group operations)
 out of a pool of 48 trial point group operations.

The dynamic configuration has the point symmetry C_3v.

 Subroutine INISYM returns: Found  6 space group operations
 (whereof  6 operations are pure point group operations),
 and found     1 'primitive' translations

 MACROSCOPIC STATIC DIELECTRIC TENSOR (including local field effects in DFT)
           3.779170     0.000000     0.000000
           0.000000     3.779170     0.000000
           0.000000     0.000000     3.779170

 PIEZOELECTRIC TENSOR  for field in x, y, z        (e  Angst)
          XX          YY          ZZ          XY          YZ          ZX
  x     0.00021    -0.00001    -0.00001    -0.00005    -0.00000    -0.00006
  y    -0.00007     0.00037    -0.00007    -0.00005    -0.00005    -0.00000
  z    -0.00013    -0.00013     0.00127    -0.00000    -0.00000    -0.00000

 PIEZOELECTRIC TENSOR  for field in x, y, z        (C/m^2)
          XX          YY          ZZ          XY          YZ          ZX
  x     0.00005    -0.00001    -0.00001    -0.00000    -0.00000    -0.00000
  y    -0.00001     0.00005    -0.00001    -0.00000    -0.00000    -0.00000
  z    -0.00001    -0.00001     0.00005    -0.00000    -0.00000    -0.00000

 BORN EFFECTIVE CHARGES (in e, cummulative output)
 ion    1
    1     1.31024     0.00000     0.00000
    2    -0.00000     1.31024    -0.00000
    3     0.00000     0.00000     1.31024
 ion    2
    1     3.89113     0.00000     0.00000
    2     0.00000     3.89113     0.00000
    3     0.00000     0.00000     3.89113
 ion    3
    1    -3.72955    -0.00000    -0.00000
    2     0.00000    -0.73591     0.00000
    3     0.00000    -0.00000    -0.73591
 ion    4
    1    -0.73591     0.00000    -0.00000
    2    -0.00000    -3.72956    -0.00000
    3    -0.00000     0.00000    -0.73591
 ion    5
    1    -0.73591    -0.00000     0.00000
    2     0.00000    -0.73591     0.00000
    3    -0.00000    -0.00000    -3.72955

 INTERNAL STRAIN TENSOR FOR ION    1 for displacements in x,y,z  (eV/Angst):
          X           Y           Z          XY          YZ          ZX
  x    -0.00018    -0.00000    -0.00000    -0.00006    -0.00005    -0.00006
  y    -0.00000    -0.00018    -0.00000    -0.00006    -0.00006    -0.00005
  z    -0.00000    -0.00000    -0.00018    -0.00005    -0.00006    -0.00006

[...]

 INTERNAL STRAIN TENSOR FOR ION    5 for displacements in x,y,z  (eV/Angst):
          X           Y           Z          XY          YZ          ZX
  x     0.00018    -0.00001     0.00015     0.00011     0.00003     0.00003
  y    -0.00001     0.00018     0.00015     0.00012     0.00003     0.00002
  z     0.00031     0.00031    -0.00091     0.00003    -0.00025    -0.00026

 SECOND DERIVATIVES (NOT SYMMETRIZED)
               1X          1Y          1Z          2X          2Y          2Z          3X          3Y          3Z          4X          4Y          4Z          5X          5Y          5Z
  1X    -0.146698   -0.000030   -0.000030    0.243648    0.000006    0.000006    0.093805    0.000006    0.000006   -0.095378    0.000011    0.000007   -0.095378    0.000007    0.000011
  1Y    -0.000030   -0.146698   -0.000030    0.000006    0.243648    0.000006    0.000011   -0.095378    0.000007    0.000006    0.093805    0.000006    0.000007   -0.095378    0.000011
  1Z    -0.000030   -0.000030   -0.146698    0.000006    0.000006    0.243648    0.000011    0.000007   -0.095378    0.000007    0.000011   -0.095378    0.000006    0.000006    0.093805
  2X     0.248224   -0.000026   -0.000026   -2.209660    0.000119    0.000119    1.600965   -0.000039   -0.000039    0.180236   -0.000028   -0.000026    0.180236   -0.000026   -0.000028
  2Y    -0.000026    0.248224   -0.000026    0.000119   -2.209660    0.000119   -0.000028    0.180236   -0.000026   -0.000039    1.600965   -0.000039   -0.000026    0.180236   -0.000028
  2Z    -0.000026   -0.000026    0.248224    0.000119    0.000119   -2.209660   -0.000028   -0.000026    0.180236   -0.000026   -0.000028    0.180236   -0.000039   -0.000039    1.600965
  3X     0.094469   -0.000012   -0.000012    1.597683   -0.000003   -0.000003   -2.001510    0.000061    0.000061    0.154679   -0.000018   -0.000028    0.154679   -0.000028   -0.000018
  3Y     0.000021   -0.094133    0.000011    0.000038    0.176885    0.000003   -0.000100   -0.174918   -0.000023    0.000023    0.154877    0.000002    0.000018   -0.062712    0.000006
  3Z     0.000021    0.000011   -0.094133    0.000038    0.000003    0.176885   -0.000100   -0.000023   -0.174918    0.000018    0.000006   -0.062712    0.000023    0.000002    0.154877
  4X    -0.094133    0.000021    0.000011    0.176885    0.000038    0.000003    0.154877    0.000023    0.000002   -0.174918   -0.000100   -0.000023   -0.062712    0.000018    0.000006
  4Y    -0.000012    0.094469   -0.000012   -0.000003    1.597683   -0.000003   -0.000018    0.154679   -0.000028    0.000061   -2.001510    0.000061   -0.000028    0.154679   -0.000018
  4Z     0.000011    0.000021   -0.094133    0.000003    0.000038    0.176885    0.000006    0.000018   -0.062712   -0.000023   -0.000100   -0.174918    0.000002    0.000023    0.154877
  5X    -0.094133    0.000011    0.000021    0.176885    0.000003    0.000038    0.154877    0.000002    0.000023   -0.062712    0.000006    0.000018   -0.174918   -0.000023   -0.000100
  5Y     0.000011   -0.094133    0.000021    0.000003    0.176885    0.000038    0.000006   -0.062712    0.000018    0.000002    0.154877    0.000023   -0.000023   -0.174918   -0.000100
  5Z    -0.000012   -0.000012    0.094469   -0.000003   -0.000003    1.597683   -0.000018   -0.000028    0.154679   -0.000028   -0.000018    0.154679    0.000061    0.000061   -2.001510

 Eigenvectors and eigenvalues of the dynamical matrix

   1 f  =    3.940249 THz    24.757313 2PiTHz  131.432549 cm-1    16.295565 meV
             X         Y         Z           dx          dy          dz
      0.000000  0.000000  0.000000    -0.009004   -0.009004   -0.009004
      2.839922  2.839922  2.839922    -0.188764   -0.188764   -0.188764
      0.000000  2.839922  2.839922     0.543292   -0.035031   -0.035031
      2.839922  0.000000  2.839922    -0.035031    0.543292   -0.035031
      2.839922  2.839922  0.000000    -0.035031   -0.035031    0.543292

[...]

  12 f  =    0.376290 THz     2.364301 2PiTHz   12.551689 cm-1     1.556212 meV
             X         Y         Z           dx          dy          dz
      0.000000  0.000000  0.000000    -0.531240   -0.044238    0.575478
      2.839922  2.839922  2.839922     0.198355    0.016517   -0.214872
      0.000000  2.839922  2.839922     0.092811    0.021223   -0.274482
      2.839922  0.000000  2.839922     0.253497    0.007729   -0.274587
      2.839922  2.839922  0.000000     0.253363    0.020984   -0.100539

  13 f/i=    0.008687 THz     0.054580 2PiTHz    0.289757 cm-1     0.035925 meV
             X         Y         Z           dx          dy          dz
      0.000000  0.000000  0.000000    -0.324783   -0.324783   -0.324783
      2.839922  2.839922  2.839922    -0.389077   -0.389077   -0.389077
      0.000000  2.839922  2.839922    -0.161063   -0.158946   -0.158946
      2.839922  0.000000  2.839922    -0.158946   -0.161063   -0.158946
      2.839922  2.839922  0.000000    -0.158946   -0.158946   -0.161063

[...]

  15 f/i=    0.008845 THz     0.055575 2PiTHz    0.295039 cm-1     0.036580 meV
             X         Y         Z           dx          dy          dz
      0.000000  0.000000  0.000000     0.268193    0.189095   -0.457288
      2.839922  2.839922  2.839922     0.321044    0.226359   -0.547403
      0.000000  2.839922  2.839922     0.132912    0.092531   -0.223557
      2.839922  0.000000  2.839922     0.131192    0.093712   -0.223575
      2.839922  2.839922  0.000000     0.131044    0.092364   -0.226624

 MACROSCOPIC STATIC DIELECTRIC TENSOR IONIC CONTRIBUTION
          71.166884    -0.040975    -0.040904
          -0.040975    71.166569    -0.040976
          -0.040904    -0.040976    71.166816

 ELASTIC MODULI IONIC CONTR (kBar)
 Direction    XX          YY          ZZ          XY          YZ          ZX
 XX          -0.0000     -0.0000     -0.0000      0.0000     -0.0000     -0.0000
 YY          -0.0000     -0.0000     -0.0000     -0.0000      0.0000     -0.0000
 ZZ          -0.0000     -0.0000     -0.0000     -0.0000     -0.0000      0.0000
 XY           0.0000     -0.0000     -0.0000     -0.0000     -0.0000     -0.0000
 YZ          -0.0000      0.0000     -0.0000     -0.0000     -0.0000     -0.0000
 ZX          -0.0000     -0.0000      0.0000     -0.0000     -0.0000     -0.0000

 PIEZOELECTRIC TENSOR IONIC CONTR  for field in x, y, z        (C/m^2)
          XX          YY          ZZ          XY          YZ          ZX
  x    -0.00083    -0.00028    -0.00028    -0.00014    -0.00020    -0.00016
  y    -0.00028    -0.00083    -0.00028    -0.00016    -0.00014    -0.00020
  z    -0.00028    -0.00028    -0.00083    -0.00020    -0.00016    -0.00014