 vasp.5.4.4.18Apr17-6-g9f103f2a35 (build Aug 24 2017 11:22:49) complex

 executed on             LinuxIFC date 2023.12.25  13:07:20

 INCAR:
 POTCAR:    PAW_PBE Ca_sv 06Sep2000
 POTCAR:    PAW_PBE Se 06Sep2000

 POTCAR:    PAW_PBE Ca_sv 06Sep2000
   VRHFIN =Ca: 3s3p4s

   TITEL  = PAW_PBE Ca_sv 06Sep2000
   POMASS =   40.078; ZVAL   =   10.000    mass and valenz
   ENMAX  =  266.622; ENMIN  =  199.967 eV

 POTCAR:    PAW_PBE Se 06Sep2000
   VRHFIN =Se: s2p4

   TITEL  = PAW_PBE Se 06Sep2000
   POMASS =   78.960; ZVAL   =    6.000    mass and valenz
   ENMAX  =  211.555; ENMIN  =  158.666 eV

  PAW_PBE Ca_sv 06Sep2000               :
  PAW_PBE Se 06Sep2000                  :

 POSCAR: Ca1 Se1
  positions in direct lattice
 exchange correlation table for  LEXCH =        8
   RHO(1)=    0.500       N(1)  =     2000
   RHO(2)=  100.500       N(2)  =     4000

 ion  position               nearest neighbor table
   1  0.000  0.000  0.000-   2 2.97   2 2.97   2 2.97   2 2.97   2 2.97   2 2.97
   2  0.500  0.500  0.500-   1 2.97   1 2.97   1 2.97   1 2.97   1 2.97   1 2.97

  LATTYP: Found a face centered cubic cell.
 ALAT       =     5.9404757541

  Lattice vectors:

 A1 = (  -2.9702378770,   0.0000000000,   2.9702378770)
 A2 = (   0.0000000000,   2.9702378770,   2.9702378770)
 A3 = (  -2.9702378770,   2.9702378770,   0.0000000000)

Analysis of symmetry for initial positions (statically):
 Subroutine PRICEL returns:
 Original cell was already a primitive cell.

 Routine SETGRP: Setting up the symmetry group for a
 face centered cubic supercell.

 Subroutine GETGRP returns: Found  8 space group operations
 (whereof  8 operations were pure point group operations)
 out of a pool of 48 trial point group operations.

The static configuration has the point symmetry C_4v.

Analysis of symmetry for dynamics (positions and initial velocities):
 Subroutine PRICEL returns:
 Original cell was already a primitive cell.

[...]

The dynamic configuration has the point symmetry C_4v.

 Subroutine INISYM returns: Found  8 space group operations
 (whereof  8 operations are pure point group operations),
 and found     1 'primitive' translations

 KPOINTS: pymatgen with grid density = 3000 / numb

Automatic generation of k-mesh.
Space group operators:
 irot       det(A)        alpha          n_x          n_y          n_z        tau_x        tau_y        tau_z
    1     1.000000     0.000001     1.000000     0.000000     0.000000     0.000000     0.000000     0.000000
    2     1.000000    90.000000    -1.000000    -0.000000     0.000000     0.000000     0.000000     0.000000
    3    -1.000000   180.000000    -0.000000     0.000000    -1.000000     0.000000     0.000000     0.000000
    4    -1.000000   180.000000     0.000000     0.707107     0.707107     0.000000     0.000000     0.000000
    5    -1.000000   180.000000    -0.000000    -1.000000     0.000000     0.000000     0.000000     0.000000
    6     1.000000    90.000000     1.000000    -0.000000    -0.000000     0.000000     0.000000     0.000000
    7     1.000000   180.000000     1.000000     0.000000     0.000000     0.000000     0.000000     0.000000
    8    -1.000000   180.000000     0.000000    -0.707107     0.707107     0.000000     0.000000     0.000000

 Subroutine IBZKPT returns following result:

 Found    163 irreducible k-points:

 Following reciprocal coordinates:
            Coordinates               Weight
  0.000000  0.000000  0.000000      1.000000
  0.083333 -0.000000 -0.000000      8.000000
  0.166667  0.000000  0.000000      8.000000
  0.250000 -0.000000  0.000000      8.000000
  0.333333 -0.000000 -0.000000      8.000000
  0.416667  0.000000  0.000000      8.000000
  0.500000 -0.000000  0.000000      4.000000
  0.083333  0.083333 -0.000000      4.000000
  0.166667  0.083333 -0.000000     16.000000
  0.250000  0.083333 -0.000000     16.000000
  0.333333  0.083333  0.000000     16.000000
  0.416667  0.083333  0.000000     16.000000
  0.500000  0.083333 -0.000000     16.000000
 -0.416667  0.083333 -0.000000     16.000000
 -0.333333  0.083333  0.000000     16.000000
 -0.250000  0.083333 -0.000000     16.000000
 -0.166667  0.083333 -0.000000     16.000000
 -0.083333  0.083333  0.000000      8.000000
  0.166667  0.166667 -0.000000      4.000000
  0.250000  0.166667 -0.000000     16.000000
  0.333333  0.166667  0.000000     16.000000
  0.416667  0.166667  0.000000     16.000000
  0.500000  0.166667  0.000000     16.000000
 -0.416667  0.166667  0.000000     16.000000
 -0.333333  0.166667 -0.000000     16.000000
 -0.250000  0.166667 -0.000000     16.000000
 -0.166667  0.166667  0.000000      8.000000
  0.250000  0.250000 -0.000000      4.000000
  0.333333  0.250000 -0.000000     16.000000
  0.416667  0.250000  0.000000     16.000000
  0.500000  0.250000  0.000000     16.000000
 -0.416667  0.250000  0.000000     16.000000
 -0.333333  0.250000  0.000000     16.000000
 -0.250000  0.250000  0.000000      8.000000
  0.333333  0.333333 -0.000000      4.000000
  0.416667  0.333333 -0.000000     16.000000
  0.500000  0.333333  0.000000     16.000000
 -0.416667  0.333333  0.000000     16.000000
 -0.333333  0.333333 -0.000000      8.000000
  0.416667  0.416667 -0.000000      4.000000
  0.500000  0.416667 -0.000000     16.000000
 -0.416667  0.416667 -0.000000      8.000000
  0.500000  0.500000 -0.000000      2.000000
  0.083333 -0.000000  0.083333      2.000000
  0.166667  0.000000  0.083333      8.000000
  0.250000 -0.000000  0.083333      8.000000
  0.333333  0.000000  0.083333      8.000000
  0.416667  0.000000  0.083333      8.000000
  0.500000 -0.000000  0.083333      8.000000
 -0.416667 -0.000000  0.083333      8.000000
 -0.333333  0.000000  0.083333      8.000000
 -0.250000  0.000000  0.083333      8.000000
 -0.166667 -0.000000  0.083333      8.000000
 -0.083333  0.000000  0.083333      4.000000
  0.250000  0.166667  0.083333      8.000000
  0.333333  0.166667  0.083333     16.000000
  0.416667  0.166667  0.083333     16.000000
  0.500000  0.166667  0.083333     16.000000
 -0.416667  0.166667  0.083333      8.000000
  0.166667  0.250000  0.083333      8.000000
[...]
  0.333333 -0.083333  0.250000      8.000000
  0.333333  0.000000  0.333333      2.000000
  0.416667  0.000000  0.333333      8.000000
  0.500000  0.000000  0.333333      8.000000
 -0.416667 -0.000000  0.333333      8.000000
 -0.333333 -0.000000  0.333333      4.000000
  0.416667 -0.250000  0.333333      8.000000
  0.416667 -0.166667  0.333333     16.000000
  0.500000 -0.166667  0.333333      4.000000
  0.416667 -0.083333  0.333333      8.000000
  0.416667 -0.000000  0.416667      2.000000
  0.500000  0.000000  0.416667      8.000000
 -0.416667  0.000000  0.416667      4.000000
  0.500000 -0.083333  0.416667      4.000000
  0.500000  0.000000  0.500000      1.000000

 Following cartesian coordinates:
            Coordinates               Weight
  0.000000  0.000000  0.000000      1.000000
 -0.014028 -0.014028  0.014028      8.000000
 -0.028056 -0.028056  0.028056      8.000000
 -0.042084 -0.042084  0.042084      8.000000
 -0.056112 -0.056112  0.056112      8.000000
 -0.070140 -0.070140  0.070140      8.000000
 -0.084168 -0.084168  0.084168      4.000000
 -0.000000 -0.000000  0.028056      4.000000
 -0.014028 -0.014028  0.042084     16.000000
 -0.028056 -0.028056  0.056112     16.000000
 -0.042084 -0.042084  0.070140     16.000000
 -0.056112 -0.056112  0.084168     16.000000
 -0.070140 -0.070140  0.098196     16.000000
  0.084168  0.084168 -0.056112     16.000000
  0.070140  0.070140 -0.042084     16.000000
  0.056112  0.056112 -0.028056     16.000000
  0.042084  0.042084 -0.014028     16.000000
  0.028056  0.028056  0.000000      8.000000
  0.000000  0.000000  0.056112      4.000000
 -0.014028 -0.014028  0.070140     16.000000
 -0.028056 -0.028056  0.084168     16.000000
 -0.042084 -0.042084  0.098196     16.000000
 -0.056112 -0.056112  0.112224     16.000000
  0.098196  0.098196 -0.042084     16.000000
  0.084168  0.084168 -0.028056     16.000000
  0.070140  0.070140 -0.014028     16.000000
  0.056112  0.056112  0.000000      8.000000
  0.000000  0.000000  0.084168      4.000000
 -0.014028 -0.014028  0.098196     16.000000
 -0.028056 -0.028056  0.112224     16.000000
 -0.042084 -0.042084  0.126253     16.000000
  0.112224  0.112224 -0.028056     16.000000
  0.098196  0.098196 -0.014028     16.000000
  0.084168  0.084168  0.000000      8.000000
  0.000000  0.000000  0.112224      4.000000
 -0.014028 -0.014028  0.126253     16.000000
 -0.028056 -0.028056  0.140281     16.000000
  0.126253  0.126253 -0.014028     16.000000
  0.112224  0.112224  0.000000      8.000000
  0.000000  0.000000  0.140281      4.000000
 -0.014028 -0.014028  0.154309     16.000000
  0.140281  0.140281  0.000000      8.000000
  0.000000  0.000000  0.168337      2.000000
 -0.028056  0.000000  0.000000      2.000000
 -0.042084 -0.014028  0.014028      8.000000
 -0.056112 -0.028056  0.028056      8.000000
 -0.070140 -0.042084  0.042084      8.000000
 -0.084168 -0.056112  0.056112      8.000000
 -0.098196 -0.070140  0.070140      8.000000
  0.056112  0.084168 -0.084168      8.000000
  0.042084  0.070140 -0.070140      8.000000
  0.028056  0.056112 -0.056112      8.000000
  0.014028  0.042084 -0.042084      8.000000
  0.000000  0.028056 -0.028056      4.000000
 -0.028056  0.000000  0.056112      8.000000
 -0.042084 -0.014028  0.070140     16.000000
 -0.056112 -0.028056  0.084168     16.000000
 -0.070140 -0.042084  0.098196     16.000000
  0.084168  0.112224 -0.056112      8.000000
  0.000000  0.028056  0.056112      8.000000
[...]
 -0.112224 -0.028056  0.000000      8.000000
 -0.112224  0.000000  0.000000      2.000000
 -0.126253 -0.014028  0.014028      8.000000
 -0.140281 -0.028056  0.028056      8.000000
  0.014028  0.126253 -0.126253      8.000000
  0.000000  0.112224 -0.112224      4.000000
 -0.168337 -0.056112 -0.028056      8.000000
 -0.154309 -0.042084 -0.014028     16.000000
 -0.168337 -0.056112  0.000000      4.000000
 -0.140281 -0.028056  0.000000      8.000000
 -0.140281  0.000000  0.000000      2.000000
 -0.154309 -0.014028  0.014028      8.000000
  0.000000  0.140281 -0.140281      4.000000
 -0.168337 -0.028056  0.000000      4.000000
 -0.168337  0.000000  0.000000      1.000000

 Subroutine IBZKPT_HF returns following result:

 Found   1728 k-points in 1st BZ
 the following   1728 k-points will be used (e.g. in the exchange kernel)
 Following reciprocal coordinates:   # in IRBZ
  0.000000  0.000000  0.000000    0.00057870   1 t-inv F
  0.083333 -0.000000 -0.000000    0.00057870   2 t-inv F
  0.166667  0.000000  0.000000    0.00057870   3 t-inv F
  0.250000 -0.000000  0.000000    0.00057870   4 t-inv F
  0.333333 -0.000000 -0.000000    0.00057870   5 t-inv F
  0.416667  0.000000  0.000000    0.00057870   6 t-inv F
  0.500000 -0.000000  0.000000    0.00057870   7 t-inv F
  0.083333  0.083333 -0.000000    0.00057870   8 t-inv F
  0.166667  0.083333 -0.000000    0.00057870   9 t-inv F
  0.250000  0.083333 -0.000000    0.00057870  10 t-inv F
  0.333333  0.083333  0.000000    0.00057870  11 t-inv F
  0.416667  0.083333  0.000000    0.00057870  12 t-inv F
[...]
      9       5.6322      0.00000
     10       6.0685      0.00000
     11       6.0685      0.00000
     12       6.0685      0.00000
     13       6.6263      0.00000
     14       6.6263      0.00000
     15      12.0552      0.00000
     16      14.5808      0.00000

[...]

 soft charge-density along one line, spin component           1
         0         1         2         3         4         5         6         7         8         9
 total charge-density along one line

------------------------ aborting loop because EDIFF is reached ----------------------------------------

  FORCE on cell =-STRESS in cart. coord.  units (eV):
  Direction    XX          YY          ZZ          XY          YZ          ZX
  Alpha Z    56.50019    56.50019    56.50019
  Ewald    -304.74257  -304.74257  -304.74257     0.00000     0.00000     0.00000
  Hartree    90.94695    90.94695    90.94695    -0.00000     0.00000    -0.00000
  E(xc)     -66.69272   -66.69272   -66.69272    -0.00000     0.00000    -0.00000
  Local       3.49463     3.49463     3.49463    -0.00001     0.00001    -0.00001
  n-local     4.47510     4.01341     4.93678     0.72832    -0.11787    -0.25284
  augment    22.27690    22.27690    22.27690     0.00001    -0.00001     0.00001
  Kinetic   193.93828   195.38691   192.48966    -5.37229     0.72818     1.91853
  Fock        0.00000     0.00000     0.00000     0.00000     0.00000     0.00000
  Total       0.19676     0.19676     0.19676    -0.00000    -0.00000    -0.00000
  in kB       6.01522     6.01522     6.01522    -0.00000    -0.00000    -0.00000

 VOLUME and BASIS-vectors are now :
  energy-cutoff  :      520.00
  volume of cell :       52.41
      direct lattice vectors                 reciprocal lattice vectors
    -2.970237877  0.000000000  2.970237877    -0.168336686 -0.168336686  0.168336686
     0.000000000  2.970237877  2.970237877     0.168336686  0.168336686  0.168336686
    -2.970237877  2.970237877  0.000000000    -0.168336686  0.168336686 -0.168336686

  length of vectors
     4.200550689  4.200550689  4.200550689     0.291567692  0.291567692  0.291567692

 FORCES acting on ions
    electron-ion (+dipol)            ewald-force                    non-local-force                 convergence-correction
   -.161E-04 0.684E-14 -.586E-16   0.158E-04 -.239E-14 0.155E-14   0.134E-05 0.117E-22 -.226E-23   -.296E-06 -.988E-13 -.125E-12
   0.158E-04 0.165E-12 -.261E-12   -.158E-04 0.201E-14 -.244E-14   -.746E-06 0.124E-22 0.188E-23   0.105E-07 0.160E-12 0.160E-12
   -.303E-06 0.172E-12 -.261E-12   0.447E-15 -.386E-15 -.887E-15   0.592E-06 0.241E-22 -.385E-24   -.286E-06 0.615E-13 0.356E-13

 POSITION                                       TOTAL-FORCE (eV/Angst)
      0.00000      0.00000      0.00000         0.000001     -0.000000      0.000000
     -2.97024      2.97024      2.97024        -0.000001      0.000000     -0.000000
    total drift:                                0.000000      0.000000     -0.000000

  FREE ENERGIE OF THE ION-ELECTRON SYSTEM (eV)
  free  energy   TOTEN  =        -9.48459894 eV

  energy  without entropy=       -9.48459894  energy(sigma->0) =       -9.48459894

 Found     4 degrees of freedom:

     directions for atom     1:  y
     directions for atom     2:  y
 Linear response reoptimize wavefunctions
 Linear response to external field (no local field effect), progress :
  Direction:   1
  LATTYP: Found a face centered cubic cell.
 ALAT       =     5.9404757541

[...]

----------------------------------------- Iteration    1(   1)  ---------------------------------------

 Free energy of the ion-electron system (eV)
  -Hartree energ DENC   =         0.00000000
  -V(xc)+E(xc)   XCENC  =         0.00000000
  PAW double counting   =         0.00000000        0.00000000
  entropy T*S    EENTRO =         0.00000000
  eigenvalues    EBANDS =        -0.69473195
  free energy    TOTEN  =        -0.69473195 eV

  energy without entropy =       -0.69473195

[...]

 change of polarisation eV/A/(eV/A) component  1 :     1.476    -0.369     0.098
 dielectric tensor                  component  1 :     6.095    -1.274     0.337

 Linear response to external field (no local field effect), progress :
  Direction:   2
  LATTYP: Found a face centered cubic cell.
 ALAT       =     5.9404757541

[...]

The dynamic configuration has the point symmetry C_1h.

[...]

 Linear response to external field (no local field effect), progress :
  Direction:   3
  LATTYP: Found a face centered cubic cell.
 ALAT       =     5.9404757541

[...]

 HEAD OF MICROSCOPIC STATIC DIELECTRIC TENSOR (INDEPENDENT PARTICLE, excluding Hartree and local field effects)
           6.095113    -0.000000     0.000000
          -0.000000     6.095389    -0.000000
           0.000000    -0.000000     6.095389

 Linear response to external field, progress :
  Direction:   1
  LATTYP: Found a face centered cubic cell.
 ALAT       =     5.9404757541

[...]

 PIEZOELECTRIC TENSOR FIELD DIRECTION 1  (e Angst)
     0.00024 -0.00000 -0.00000           ( -0.00000  0.00000 -0.00000)
    -0.00000  0.00006 -0.00000           (  0.00000  0.00000 -0.00000)
    -0.00000  0.00000  0.00006           ( -0.00000 -0.00000  0.00000)

 PIEZOELECTRIC TENSOR FIELD DIRECTION 1  (C/m^2)
     0.00007 -0.00000 -0.00000
    -0.00000  0.00002 -0.00000
    -0.00000  0.00000  0.00002

      POSITION         DIRECTION 1           BORN EFFECTIVE CHARGE    (rigid.aug.   ionic)
      0.00000      0.00000      0.00000     2.37321 -0.00000 -0.00000 ( -2.64703 10.00000)
     -2.97024      2.97024      2.97024    -2.37322  0.00000  0.00000 (  1.11220  6.00000)
    total drift (improves with k-points):  -0.00001  0.00000  0.00000

[...]

 Linear response to external field, progress :
  Direction:   3
  LATTYP: Found a face centered cubic cell.
 ALAT       =     5.9404757541

[...]

 change of polarisation eV/A/(eV/A) component  3 :    -0.000     0.008     1.345
 dielectric tensor                  component  3 :    -0.000     0.027     5.644

 PIEZOELECTRIC TENSOR FIELD DIRECTION 3  (e Angst)
     0.00001 -0.00000 -0.00025           (  0.00000 -0.00000  0.00000)
    -0.00000 -0.00003 -0.00000           ( -0.00000  0.00000 -0.00000)
    -0.00025 -0.00000  0.00002           (  0.00000 -0.00000  0.00000)

 PIEZOELECTRIC TENSOR FIELD DIRECTION 3  (C/m^2)
     0.00000 -0.00000 -0.00008
    -0.00000 -0.00001 -0.00000
    -0.00008 -0.00000  0.00001

      POSITION         DIRECTION 3           BORN EFFECTIVE CHARGE    (rigid.aug.   ionic)
      0.00000      0.00000      0.00000     0.00004 -0.00000  2.37318 ( -2.64703 10.00000)
     -2.97024      2.97024      2.97024    -0.00002  0.00000 -2.37335 (  1.11220  6.00000)
    total drift (improves with k-points):   0.00002  0.00000 -0.00017

[...]

 MACROSCOPIC STATIC DIELECTRIC TENSOR (including local field effects in DFT)
           5.643709    -0.000000     0.000000
          -0.000000     5.644029    -0.000000
           0.000000    -0.000000     5.644029

 Linear response:
   Degrees of freedom DOF   =            4
 Linear response progress:
  Degree of freedom:   1/  4
  LATTYP: Found a face centered cubic cell.
 ALAT       =     5.9404757541

[...]

 INTERNAL STRAIN TENSOR  FOR ION    1  DIRECTION 1   (eV/Angst):
     0.00204 -0.00000  0.00000
     0.00000 -0.00056 -0.00000
    -0.00000  0.00000 -0.00056

 POSITION                   FORCE-CONSTANT FOR ION    1 DIRECTION 1 (eV/Angst/Angst)
      0.00000      0.00000      0.00000        -2.955750     -0.000000      0.000000
     -2.97024      2.97024      2.97024         2.955750      0.000000     -0.000000
    total drift:                                0.000000      0.000000      0.000000

 BORN EFFECTIVE CHARGE FOR ION    1 DIRECTION 1 :   2.373  -0.000   0.000
                   rigid augmentation           :  -2.647  -0.000   0.000
                   ionic contribution           :  10.000  -0.000   0.000
                   Berry contribution           :  -4.980   0.000  -0.000

 Linear response progress:
  Degree of freedom:   2/  4
  LATTYP: Found a face centered cubic cell.
 ALAT       =     5.9404757541

[...]

 Linear response progress:
  Degree of freedom:   4/  4
  LATTYP: Found a face centered cubic cell.
 ALAT       =     5.9404757541

[...]

The dynamic configuration has the point symmetry C_1h.

[...]

----------------------------------------- Iteration    8(  13)  ---------------------------------------

 Broyden mixing:
  rms(total) = 0.62152E-05    rms(broyden)= 0.62151E-05
  rms(prec ) = 0.77687E-05
  weight for this iteration     100.00

 eigenvalues of (default mixing * dielectric matrix)
  average eigenvalue GAMMA=   1.8020
  3.2694  2.9840  2.6235  2.3741  1.7587  1.6115  1.4387  1.0307  0.9728  0.9728
  0.7856

 Free energy of the ion-electron system (eV)
  -Hartree energ DENC   =        -0.04273271
  -V(xc)+E(xc)   XCENC  =         0.00020136
  PAW double counting   =         0.00012975       -0.00013140
  entropy T*S    EENTRO =        -0.00000000
  eigenvalues    EBANDS =        -0.04405724
  free energy    TOTEN  =        -0.08659024 eV

  energy without entropy =       -0.08659024

[...]

 k-point 476 :      -0.0000   -0.5000   -0.5000
  band No.  band energies     occupation
      1      -0.0001      0.00000
      2      -0.0001      0.00000
      3      -0.0001      0.00000
      4      -0.0001      0.00000
      5       0.0003      0.00000
      6       0.0001      0.00000
      7       0.0002      0.00000
      8       0.0002      0.00000
      9      -0.0000      0.00000
     10       0.0000      0.00000
     11      -0.0000      0.00000
     12      -0.0001      0.00000
     13      -0.0001      0.00000
     14      -0.0001      0.00000
     15       0.0001      0.00000
     16      -0.0000      0.00000

------------------------ aborting loop because EDIFF is reached ----------------------------------------

 INTERNAL STRAIN TENSOR  FOR ION    2  DIRECTION 2   (eV/Angst):
     0.00118 -0.00048  0.00000
    -0.00047  0.00068  0.00000
     0.00000  0.00000  0.00014

 POSITION                   FORCE-CONSTANT FOR ION    2 DIRECTION 2 (eV/Angst/Angst)
      0.00000      0.00000      0.00000        -0.000006      2.961907     -0.000000
     -2.97024      2.97024      2.97024         0.000006     -2.961907      0.000000
    total drift:                                0.000000      0.000000      0.000000

 BORN EFFECTIVE CHARGE FOR ION    2 DIRECTION 2 :  -0.000  -2.373   0.000
                   rigid augmentation           :  -0.000   1.112  -0.000
                   ionic contribution           :  -0.000   6.000  -0.000
                   Berry contribution           :  -0.000  -9.486   0.000

  LATTYP: Found a face centered cubic cell.
 ALAT       =     5.9404757541

  Lattice vectors:

 A1 = (  -2.9702378770,   0.0000000000,   2.9702378770)
 A2 = (   0.0000000000,   2.9702378770,   2.9702378770)
 A3 = (  -2.9702378770,   2.9702378770,   0.0000000000)

Analysis of symmetry for initial positions (statically):
 Subroutine PRICEL returns:
 Original cell was already a primitive cell.

[...]

The static configuration has the point symmetry C_4v.

Analysis of symmetry for dynamics (positions and initial velocities):
 Subroutine PRICEL returns:
 Original cell was already a primitive cell.

 Routine SETGRP: Setting up the symmetry group for a
 face centered cubic supercell.

 Subroutine GETGRP returns: Found  8 space group operations
 (whereof  8 operations were pure point group operations)
 out of a pool of 48 trial point group operations.

The dynamic configuration has the point symmetry C_4v.

 Subroutine INISYM returns: Found  8 space group operations
 (whereof  8 operations are pure point group operations),
 and found     1 'primitive' translations

 MACROSCOPIC STATIC DIELECTRIC TENSOR (including local field effects in DFT)
           5.643709    -0.000000     0.000000
          -0.000000     5.644029    -0.000000
           0.000000    -0.000000     5.644029

 PIEZOELECTRIC TENSOR  for field in x, y, z        (e  Angst)
          XX          YY          ZZ          XY          YZ          ZX
  x     0.00024     0.00006     0.00006    -0.00000     0.00000    -0.00000
  y    -0.00009     0.00006    -0.00013     0.00026     0.00000    -0.00000
  z     0.00001    -0.00003     0.00002    -0.00000    -0.00000    -0.00025

 PIEZOELECTRIC TENSOR  for field in x, y, z        (C/m^2)
          XX          YY          ZZ          XY          YZ          ZX
  x     0.00007     0.00002     0.00002    -0.00000    -0.00000     0.00000
  y    -0.00000    -0.00000    -0.00000     0.00000     0.00000    -0.00000
  z     0.00000     0.00000     0.00000    -0.00000    -0.00000     0.00000

 BORN EFFECTIVE CHARGES (in e, cummulative output)
 ion    1
    1     2.37322    -0.00000    -0.00000
    2    -0.00006     2.37332    -0.00000
    3     0.00003    -0.00000     2.37326
 ion    2
    1    -2.37322     0.00000     0.00000
    2     0.00006    -2.37332     0.00000
    3    -0.00003     0.00000    -2.37326

 INTERNAL STRAIN TENSOR FOR ION    1 for displacements in x,y,z  (eV/Angst):
          X           Y           Z          XY          YZ          ZX
  x     0.00204    -0.00056    -0.00056    -0.00000     0.00000     0.00000
  y     0.00000     0.00000     0.00000    -0.00081    -0.00000     0.00000
  z     0.00000    -0.00000     0.00000     0.00000     0.00000    -0.00081

 INTERNAL STRAIN TENSOR FOR ION    2 for displacements in x,y,z  (eV/Angst):
          X           Y           Z          XY          YZ          ZX
  x    -0.00196    -0.00031    -0.00031     0.00000     0.00000    -0.00000
  y     0.00000     0.00000     0.00000    -0.00047    -0.00000     0.00000
  z    -0.00000    -0.00000     0.00000     0.00000     0.00000    -0.00048

 SECOND DERIVATIVES (NOT SYMMETRIZED)
               1X          1Y          1Z          2X          2Y          2Z
  1X    -2.955750    0.000000   -0.000000    2.955750   -0.000000    0.000000
  1Y     0.000000   -2.955854    0.000000   -0.000000    2.955854   -0.000000
  1Z    -0.000000    0.000000   -2.955854    0.000000   -0.000000    2.955854
  2X     2.961881   -0.000000    0.000000   -2.961881    0.000000   -0.000000
  2Y    -0.000000    2.961907   -0.000000    0.000000   -2.961907    0.000000
  2Z     0.000000   -0.000000    2.961907   -0.000000    0.000000   -2.961907

 Eigenvectors and eigenvalues of the dynamical matrix

   1 f  =    5.214686 THz    32.764837 2PiTHz  173.943187 cm-1    21.566214 meV
             X         Y         Z           dx          dy          dz
      0.000000  0.000000  0.000000     0.000000   -0.814162   -0.000000
     -2.970238  2.970238  2.970238    -0.000000    0.580637   -0.000000

[...]

   3 f  =    5.214617 THz    32.764406 2PiTHz  173.940901 cm-1    21.565931 meV
             X         Y         Z           dx          dy          dz
      0.000000  0.000000  0.000000     0.814159    0.000000   -0.000000
     -2.970238  2.970238  2.970238    -0.580642   -0.000000    0.000000

   4 f/i=    0.002522 THz     0.015845 2PiTHz    0.084118 cm-1     0.010429 meV
             X         Y         Z           dx          dy          dz
      0.000000  0.000000  0.000000     0.000000    0.255933   -0.521189
     -2.970238  2.970238  2.970238     0.000000    0.358867   -0.730804

[...]

   6 f/i=    0.002554 THz     0.016046 2PiTHz    0.085185 cm-1     0.010562 meV
             X         Y         Z           dx          dy          dz
      0.000000  0.000000  0.000000     0.580642   -0.000000    0.000000
     -2.970238  2.970238  2.970238     0.814159   -0.000000    0.000000

 MACROSCOPIC STATIC DIELECTRIC TENSOR IONIC CONTRIBUTION
           6.572334    -0.000162     0.000087
          -0.000162     6.572760    -0.000000
           0.000087    -0.000000     6.572439

 ELASTIC MODULI IONIC CONTR (kBar)
 Direction    XX          YY          ZZ          XY          YZ          ZX
 XX          -0.0000      0.0000      0.0000      0.0000     -0.0000      0.0000
 YY           0.0000     -0.0000     -0.0000     -0.0000      0.0000     -0.0000
 ZZ           0.0000     -0.0000     -0.0000     -0.0000      0.0000     -0.0000
 XY           0.0000     -0.0000     -0.0000     -0.0000     -0.0000      0.0000
 YZ          -0.0000      0.0000      0.0000     -0.0000     -0.0000      0.0000
 ZX           0.0000     -0.0000     -0.0000      0.0000      0.0000     -0.0000

 PIEZOELECTRIC TENSOR IONIC CONTR  for field in x, y, z        (C/m^2)
          XX          YY          ZZ          XY          YZ          ZX
  x     0.00049    -0.00003    -0.00003    -0.00000     0.00000    -0.00000
  y    -0.00000     0.00000     0.00000    -0.00004    -0.00000    -0.00000
  z     0.00000    -0.00000    -0.00000     0.00000     0.00000    -0.00004