 vasp.5.4.4.18Apr17-6-g9f103f2a35 (build Aug 24 2017 11:22:49) complex

 executed on             LinuxIFC date 2023.12.25  13:07:54

 INCAR:
 POTCAR:    PAW_PBE Xe 07Sep2000

 POTCAR:    PAW_PBE Xe 07Sep2000
   VRHFIN =Xe: s2p6

   TITEL  = PAW_PBE Xe 07Sep2000
   POMASS =  131.294; ZVAL   =    8.000    mass and valenz
   ENMAX  =  153.118; ENMIN  =  114.839 eV

  PAW_PBE Xe 07Sep2000                  :

 POSCAR: Xe1
  positions in direct lattice
 exchange correlation table for  LEXCH =        8
   RHO(1)=    0.500       N(1)  =     2000
   RHO(2)=  100.500       N(2)  =     4000

 ion  position               nearest neighbor table
   1  0.000  0.000  0.000-

  LATTYP: Found a face centered cubic cell.
 ALAT       =     6.4929347920

  Lattice vectors:

 A1 = (  -3.2464673960,   0.0000000000,   3.2464673960)
 A2 = (   0.0000000000,   3.2464673960,   3.2464673960)
 A3 = (  -3.2464673960,   3.2464673960,   0.0000000000)

Analysis of symmetry for initial positions (statically):
 Subroutine PRICEL returns:
 Original cell was already a primitive cell.

 Routine SETGRP: Setting up the symmetry group for a
 face centered cubic supercell.

 Subroutine GETGRP returns: Found 48 space group operations
 (whereof 48 operations were pure point group operations)
 out of a pool of 48 trial point group operations.

The static configuration has the point symmetry O_h .

Analysis of symmetry for dynamics (positions and initial velocities):
 Subroutine PRICEL returns:
 Original cell was already a primitive cell.

[...]

The dynamic configuration has the point symmetry O_h .

 Subroutine INISYM returns: Found 48 space group operations
 (whereof 48 operations are pure point group operations),
 and found     1 'primitive' translations

 KPOINTS: pymatgen with grid density = 3000 / numb

Automatic generation of k-mesh.
Space group operators:
 irot       det(A)        alpha          n_x          n_y          n_z        tau_x        tau_y        tau_z
    1     1.000000     0.000000     1.000000     0.000000     0.000000     0.000000     0.000000     0.000000
    2    -1.000000     0.000000     1.000000     0.000000     0.000000     0.000000     0.000000     0.000000
    3     1.000000   120.000000     0.577350    -0.577350    -0.577350     0.000000     0.000000     0.000000
    4    -1.000000   120.000000     0.577350    -0.577350    -0.577350     0.000000     0.000000     0.000000
    5     1.000000   120.000000    -0.577350     0.577350     0.577350     0.000000     0.000000     0.000000
    6    -1.000000   120.000000    -0.577350     0.577350     0.577350     0.000000     0.000000     0.000000
    7     1.000000    90.000000     0.000000     0.000000    -1.000000     0.000000     0.000000     0.000000
    8    -1.000000    90.000000     0.000000     0.000000    -1.000000     0.000000     0.000000     0.000000
    9     1.000000   180.000000     0.707107     0.000000    -0.707107     0.000000     0.000000     0.000000
   10    -1.000000   180.000000     0.707107     0.000000    -0.707107     0.000000     0.000000     0.000000
   11     1.000000    90.000000    -1.000000    -0.000000    -0.000000     0.000000     0.000000     0.000000
   12    -1.000000    90.000000    -1.000000    -0.000000    -0.000000     0.000000     0.000000     0.000000
   13     1.000000   180.000000     0.000000    -0.000000     1.000000     0.000000     0.000000     0.000000
   14    -1.000000   180.000000     0.000000    -0.000000     1.000000     0.000000     0.000000     0.000000
   15     1.000000   120.000000    -0.577350    -0.577350     0.577350     0.000000     0.000000     0.000000
   16    -1.000000   120.000000    -0.577350    -0.577350     0.577350     0.000000     0.000000     0.000000
   17     1.000000   120.000000    -0.577350    -0.577350    -0.577350     0.000000     0.000000     0.000000
   18    -1.000000   120.000000    -0.577350    -0.577350    -0.577350     0.000000     0.000000     0.000000
   19     1.000000    90.000000    -0.000000     0.000000     1.000000     0.000000     0.000000     0.000000
   20    -1.000000    90.000000    -0.000000     0.000000     1.000000     0.000000     0.000000     0.000000
   21     1.000000    90.000000    -0.000000    -1.000000     0.000000     0.000000     0.000000     0.000000
   22    -1.000000    90.000000    -0.000000    -1.000000     0.000000     0.000000     0.000000     0.000000
   23     1.000000   180.000000     0.000000     0.707107     0.707107     0.000000     0.000000     0.000000
   24    -1.000000   180.000000     0.000000     0.707107     0.707107     0.000000     0.000000     0.000000
   25     1.000000   120.000000     0.577350     0.577350     0.577350     0.000000     0.000000     0.000000
   26    -1.000000   120.000000     0.577350     0.577350     0.577350     0.000000     0.000000     0.000000
   27     1.000000   120.000000     0.577350    -0.577350     0.577350     0.000000     0.000000     0.000000
   28    -1.000000   120.000000     0.577350    -0.577350     0.577350     0.000000     0.000000     0.000000
   29     1.000000   180.000000    -0.000000    -1.000000    -0.000000     0.000000     0.000000     0.000000
   30    -1.000000   180.000000    -0.000000    -1.000000    -0.000000     0.000000     0.000000     0.000000
   31     1.000000    90.000000     1.000000     0.000000    -0.000000     0.000000     0.000000     0.000000
   32    -1.000000    90.000000     1.000000     0.000000    -0.000000     0.000000     0.000000     0.000000
   33     1.000000   180.000000     0.707107    -0.707107     0.000000     0.000000     0.000000     0.000000
   34    -1.000000   180.000000     0.707107    -0.707107     0.000000     0.000000     0.000000     0.000000
   35     1.000000    90.000000     0.000000     1.000000     0.000000     0.000000     0.000000     0.000000
   36    -1.000000    90.000000     0.000000     1.000000     0.000000     0.000000     0.000000     0.000000
   37     1.000000   120.000000     0.577350     0.577350    -0.577350     0.000000     0.000000     0.000000
   38    -1.000000   120.000000     0.577350     0.577350    -0.577350     0.000000     0.000000     0.000000
   39     1.000000   180.000000     1.000000     0.000000     0.000000     0.000000     0.000000     0.000000
   40    -1.000000   180.000000     1.000000     0.000000     0.000000     0.000000     0.000000     0.000000
   41     1.000000   120.000000    -0.577350     0.577350    -0.577350     0.000000     0.000000     0.000000
   42    -1.000000   120.000000    -0.577350     0.577350    -0.577350     0.000000     0.000000     0.000000
   43     1.000000   180.000000     0.707107     0.000000     0.707107     0.000000     0.000000     0.000000
   44    -1.000000   180.000000     0.707107     0.000000     0.707107     0.000000     0.000000     0.000000
   45     1.000000   180.000000     0.707107     0.707107    -0.000000     0.000000     0.000000     0.000000
   46    -1.000000   180.000000     0.707107     0.707107    -0.000000     0.000000     0.000000     0.000000
   47     1.000000   180.000000     0.000000    -0.707107     0.707107     0.000000     0.000000     0.000000
   48    -1.000000   180.000000     0.000000    -0.707107     0.707107     0.000000     0.000000     0.000000

 Subroutine IBZKPT returns following result:

 Found    104 irreducible k-points:

 Following reciprocal coordinates:
            Coordinates               Weight
  0.000000  0.000000  0.000000      1.000000
  0.071429  0.000000  0.000000      8.000000
  0.142857  0.000000  0.000000      8.000000
  0.214286  0.000000 -0.000000      8.000000
  0.285714 -0.000000 -0.000000      8.000000
  0.357143 -0.000000  0.000000      8.000000
  0.428571  0.000000 -0.000000      8.000000
  0.500000  0.000000  0.000000      4.000000
  0.071429  0.071429 -0.000000      6.000000
  0.142857  0.071429 -0.000000     24.000000
  0.214286  0.071429 -0.000000     24.000000
  0.285714  0.071429 -0.000000     24.000000
  0.357143  0.071429  0.000000     24.000000
  0.428571  0.071429  0.000000     24.000000
  0.500000  0.071429 -0.000000     24.000000
 -0.428571  0.071429 -0.000000     24.000000
 -0.357143  0.071429  0.000000     24.000000
 -0.285714  0.071429 -0.000000     24.000000
 -0.214286  0.071429  0.000000     24.000000
 -0.142857  0.071429 -0.000000     24.000000
 -0.071429  0.071429 -0.000000     12.000000
  0.142857  0.142857 -0.000000      6.000000
  0.214286  0.142857 -0.000000     24.000000
  0.285714  0.142857 -0.000000     24.000000
  0.357143  0.142857 -0.000000     24.000000
  0.428571  0.142857 -0.000000     24.000000
  0.500000  0.142857 -0.000000     24.000000
 -0.428571  0.142857  0.000000     24.000000
 -0.357143  0.142857 -0.000000     24.000000
 -0.285714  0.142857 -0.000000     24.000000
 -0.214286  0.142857 -0.000000     24.000000
 -0.142857  0.142857  0.000000     12.000000
  0.214286  0.214286 -0.000000      6.000000
  0.285714  0.214286 -0.000000     24.000000
  0.357143  0.214286 -0.000000     24.000000
  0.428571  0.214286 -0.000000     24.000000
  0.500000  0.214286  0.000000     24.000000
 -0.428571  0.214286 -0.000000     24.000000
 -0.357143  0.214286  0.000000     24.000000
 -0.285714  0.214286 -0.000000     24.000000
 -0.214286  0.214286 -0.000000     12.000000
  0.285714  0.285714 -0.000000      6.000000
  0.357143  0.285714  0.000000     24.000000
  0.428571  0.285714  0.000000     24.000000
  0.500000  0.285714 -0.000000     24.000000
 -0.428571  0.285714 -0.000000     24.000000
 -0.357143  0.285714  0.000000     24.000000
 -0.285714  0.285714  0.000000     12.000000
  0.357143  0.357143 -0.000000      6.000000
  0.428571  0.357143  0.000000     24.000000
  0.500000  0.357143 -0.000000     24.000000
 -0.428571  0.357143  0.000000     24.000000
 -0.357143  0.357143 -0.000000     12.000000
  0.428571  0.428571 -0.000000      6.000000
  0.500000  0.428571 -0.000000     24.000000
 -0.428571  0.428571 -0.000000     12.000000
  0.500000  0.500000 -0.000000      3.000000
  0.214286  0.142857  0.071429     24.000000
  0.285714  0.142857  0.071429     48.000000
  0.357143  0.142857  0.071429     48.000000
[...]
  0.500000  0.285714  0.142857     48.000000
 -0.428571  0.285714  0.142857     48.000000
 -0.357143  0.285714  0.142857     24.000000
  0.500000  0.357143  0.142857     24.000000
 -0.428571  0.357143  0.142857     48.000000
 -0.357143  0.357143  0.142857     48.000000
 -0.285714  0.357143  0.142857     48.000000
 -0.214286  0.357143  0.142857     24.000000
 -0.428571  0.428571  0.142857     24.000000
 -0.357143  0.428571  0.142857     48.000000
 -0.285714  0.428571  0.142857     24.000000
 -0.357143  0.500000  0.142857     12.000000
 -0.357143  0.428571  0.214286     24.000000
 -0.285714  0.428571  0.214286     24.000000
 -0.285714  0.500000  0.214286     12.000000

 Following cartesian coordinates:
            Coordinates               Weight
  0.000000  0.000000  0.000000      1.000000
 -0.011001 -0.011001  0.011001      8.000000
 -0.022002 -0.022002  0.022002      8.000000
 -0.033003 -0.033003  0.033003      8.000000
 -0.044004 -0.044004  0.044004      8.000000
 -0.055005 -0.055005  0.055005      8.000000
 -0.066006 -0.066006  0.066006      8.000000
[...]
 keeping initial charge density in first step

 Maximum index for augmentation-charges         4873 (set IRDMAX)

 First call to EWALD:  gamma=   0.433
 Maximum number of real-space cells 3x 3x 3
 Maximum number of reciprocal cells 3x 3x 3

--------------------------------------- Iteration      1(   1)  ---------------------------------------

 eigenvalue-minimisations  :  1712
 total energy-change (2. order) : 0.3800761E+02  (-0.4815410E+03)
 number of electron       8.0000000 magnetization
 augmentation part        8.0000000 magnetization

 Free energy of the ion-electron system (eV)
  alpha Z        PSCENC =        35.00687294
  Ewald energy   TEWEN  =      -325.38032264
  -Hartree energ DENC   =       -75.51404954
  -exchange      EXHF   =         0.00000000
  -V(xc)+E(xc)   XCENC  =       -23.71404085
  PAW double counting   =       379.96477650     -340.65282128
  entropy T*S    EENTRO =        -0.00004212
  eigenvalues    EBANDS =       -41.21779129
  atomic energy  EATOM  =       429.51503049
  Solvation  Ediel_sol  =         0.00000000
  free energy    TOTEN  =        38.00761221 eV

  energy without entropy =       38.00765433  energy(sigma->0) =       38.00763327

[...]

 eigenvalue-minimisations  :  2128
 total energy-change (2. order) :-0.3563125E+02  (-0.3401499E+02)
 number of electron       8.0000000 magnetization
 augmentation part        8.0000000 magnetization

[...]

 Broyden mixing:
  rms(total) = 0.12964E-02    rms(broyden)= 0.10935E-02
  rms(prec ) = 0.26886E-02
  weight for this iteration     100.00
  WARNING: grid for Broyden might be to small

[...]

 Broyden mixing:
  rms(total) = 0.67903E-03    rms(broyden)= 0.66476E-03
  rms(prec ) = 0.16074E-02
  weight for this iteration     100.00

 eigenvalues of (default mixing * dielectric matrix)
  average eigenvalue GAMMA=   2.3962
  2.3962

[...]

 eigenvalue-minimisations  :  1880
 total energy-change (2. order) :-0.1572860E-06  (-0.2516153E-08)
 number of electron       8.0000000 magnetization
 augmentation part       -1.7739168 magnetization

[...]

--------------------------------------- Iteration      1(  11)  ---------------------------------------

 eigenvalue-minimisations  :  1368
 total energy-change (2. order) : 0.3055902E-08  (-0.2436476E-10)
 number of electron       8.0000000 magnetization
 augmentation part       -1.7739168 magnetization

 Free energy of the ion-electron system (eV)
  alpha Z        PSCENC =        35.00687294
  Ewald energy   TEWEN  =      -325.38032264
  -Hartree energ DENC   =       -75.53515269
  -exchange      EXHF   =         0.00000000
  -V(xc)+E(xc)   XCENC  =       -23.71500576
  PAW double counting   =       379.70496328     -340.39361330
  entropy T*S    EENTRO =        -0.00000000
  eigenvalues    EBANDS =       -79.22904531
  atomic energy  EATOM  =       429.51503049
  Solvation  Ediel_sol  =         0.00000000
  free energy    TOTEN  =        -0.02627298 eV

  energy without entropy =       -0.02627298  energy(sigma->0) =       -0.02627298

 average (electrostatic) potential at core
  the test charge radii are     1.2011
  (the norm of the test charge is              1.0000)
       1   4.5095

 E-fermi :  -6.4471     XC(G=0):  -6.1585     alpha+bet : -1.1861

 k-point     1 :       0.0000    0.0000    0.0000
  band No.  band energies     occupation
      1     -18.6552      2.00000
      2      -6.5332      2.00000
      3      -6.5332      2.00000
      4      -6.5332      2.00000
      5      -0.3311      0.00000
      6       4.3807      0.00000
      7       4.3807      0.00000
      8       4.3807      0.00000

[...]

 soft charge-density along one line, spin component           1
         0         1         2         3         4         5         6         7         8         9
 total charge-density along one line

------------------------ aborting loop because EDIFF is reached ----------------------------------------

  FORCE on cell =-STRESS in cart. coord.  units (eV):
  Direction    XX          YY          ZZ          XY          YZ          ZX
  Alpha Z    35.00687    35.00687    35.00687
  Ewald    -108.46011  -108.46011  -108.46011     0.00000    -0.00000    -0.00000
  Hartree    25.17837    25.17837    25.17837    -0.00000     0.00000    -0.00000
  E(xc)     -34.02987   -34.02987   -34.02987     0.00000    -0.00000     0.00000
  Local      68.26886    68.26886    68.26886     0.00001    -0.00001     0.00001
  n-local  -113.69379  -113.32413  -112.11234     1.07294    -0.63547    -0.98397
  augment    30.58589    30.58589    30.58589    -0.00001     0.00001    -0.00001
  Kinetic    97.58685    97.15718    95.14184    -1.75323     1.01854     1.53112
  Fock        0.00000     0.00000     0.00000     0.00000     0.00000     0.00000
  Total       0.13523     0.13523     0.13523    -0.00000    -0.00000     0.00000
  in kB       3.16596     3.16596     3.16596    -0.00000    -0.00000     0.00000

 VOLUME and BASIS-vectors are now :
  energy-cutoff  :      520.00
  volume of cell :       68.43
      direct lattice vectors                 reciprocal lattice vectors
    -3.246467396  0.000000000  3.246467396    -0.154013560 -0.154013560  0.154013560
     0.000000000  3.246467396  3.246467396     0.154013560  0.154013560  0.154013560
    -3.246467396  3.246467396  0.000000000    -0.154013560  0.154013560 -0.154013560

  length of vectors
     4.591198221  4.591198221  4.591198221     0.266759310  0.266759310  0.266759310

 FORCES acting on ions
    electron-ion (+dipol)            ewald-force                    non-local-force                 convergence-correction
   0.718E-14 -.708E-14 0.172E-14   0.542E-15 0.665E-17 0.444E-16   -.335E-25 -.699E-25 0.289E-25   0.377E-14 0.891E-15 -.956E-15
   0.718E-14 -.708E-14 0.172E-14   0.542E-15 0.665E-17 0.444E-16   -.335E-25 -.699E-25 0.289E-25   0.377E-14 0.891E-15 -.956E-15

 POSITION                                       TOTAL-FORCE (eV/Angst)
      0.00000      0.00000      0.00000        -0.000000     -0.000000     -0.000000
    total drift:                                0.000000     -0.000000      0.000000

  FREE ENERGIE OF THE ION-ELECTRON SYSTEM (eV)
  free  energy   TOTEN  =        -0.02627298 eV

  energy  without entropy=       -0.02627298  energy(sigma->0) =       -0.02627298

 Found     1 degrees of freedom:

     directions for atom     1:  x
 Linear response reoptimize wavefunctions
 Linear response to external field (no local field effect), progress :
  Direction:   1
  LATTYP: Found a face centered cubic cell.
 ALAT       =     6.4929347920

[...]

The dynamic configuration has the point symmetry C_4v.

[...]

----------------------------------------- Iteration    1(   1)  ---------------------------------------

 Free energy of the ion-electron system (eV)
  -Hartree energ DENC   =         0.00000000
  -V(xc)+E(xc)   XCENC  =         0.00000000
  PAW double counting   =         0.00000000        0.00000000
  entropy T*S    EENTRO =         0.00000000
  eigenvalues    EBANDS =        -0.13837610
  free energy    TOTEN  =        -0.13837610 eV

  energy without entropy =       -0.13837610

[...]

 change of polarisation eV/A/(eV/A) component  1 :     0.552    -0.087     0.058
 dielectric tensor                  component  1 :     2.459    -0.231     0.154

 Linear response to external field (no local field effect), progress :
  Direction:   2
  LATTYP: Found a face centered cubic cell.
 ALAT       =     6.4929347920

[...]

 Linear response to external field (no local field effect), progress :
  Direction:   3
  LATTYP: Found a face centered cubic cell.
 ALAT       =     6.4929347920

[...]

 HEAD OF MICROSCOPIC STATIC DIELECTRIC TENSOR (INDEPENDENT PARTICLE, excluding Hartree and local field effects)
           2.342329    -0.000000     0.000000
          -0.000000     2.342329    -0.000000
           0.000000    -0.000000     2.342329

 Linear response to external field, progress :
  Direction:   1
  LATTYP: Found a face centered cubic cell.
 ALAT       =     6.4929347920

[...]

 PIEZOELECTRIC TENSOR FIELD DIRECTION 1  (e Angst)
     0.00007  0.00000  0.00000           (  0.00000 -0.00000  0.00000)
    -0.00000  0.00006  0.00000           ( -0.00000  0.00000  0.00000)
     0.00000 -0.00000  0.00006           (  0.00000  0.00000  0.00000)

 PIEZOELECTRIC TENSOR FIELD DIRECTION 1  (C/m^2)
     0.00002  0.00000  0.00000
    -0.00000  0.00001  0.00000
     0.00000 -0.00000  0.00001

      POSITION         DIRECTION 1           BORN EFFECTIVE CHARGE    (rigid.aug.   ionic)
      0.00000      0.00000      0.00000    -0.00005 -0.00000 -0.00000 (  1.77392  8.00000)
    total drift (improves with k-points):  -0.00005 -0.00000 -0.00000

[...]

 Linear response to external field, progress :
  Direction:   3
  LATTYP: Found a face centered cubic cell.
 ALAT       =     6.4929347920

[...]

 change of polarisation eV/A/(eV/A) component  3 :     0.061     0.057     0.398
 dielectric tensor                  component  3 :     0.160     0.152     2.053

 PIEZOELECTRIC TENSOR FIELD DIRECTION 3  (e Angst)
    -0.00006 -0.00000 -0.00000           (  0.00000 -0.00000 -0.00000)
    -0.00000 -0.00006  0.00000           ( -0.00000  0.00000  0.00000)
     0.00000  0.00000 -0.00007           ( -0.00000  0.00000  0.00000)

 PIEZOELECTRIC TENSOR FIELD DIRECTION 3  (C/m^2)
    -0.00001 -0.00000 -0.00000
    -0.00000 -0.00001  0.00000
     0.00000  0.00000 -0.00002

      POSITION         DIRECTION 3           BORN EFFECTIVE CHARGE    (rigid.aug.   ionic)
      0.00000      0.00000      0.00000     0.00000 -0.00000 -0.00005 (  1.77392  8.00000)
    total drift (improves with k-points):   0.00000 -0.00000 -0.00005

[...]

 MACROSCOPIC STATIC DIELECTRIC TENSOR (including local field effects in DFT)
           2.052733    -0.000000     0.000000
          -0.000000     2.052733    -0.000000
           0.000000    -0.000000     2.052733

 Linear response:
   Degrees of freedom DOF   =            1
 Linear response progress:
  Degree of freedom:   1/  1
  LATTYP: Found a face centered cubic cell.
 ALAT       =     6.4929347920

[...]

The dynamic configuration has the point symmetry C_4v.

[...]

 Broyden mixing:
  rms(total) = 0.10880E-01    rms(broyden)= 0.88191E-02
  rms(prec ) = 0.21842E-01
  weight for this iteration     100.00
  WARNING: grid for Broyden might be to small

[...]

----------------------------------------- Iteration    4(  12)  ---------------------------------------

 Broyden mixing:
  rms(total) = 0.20840E-06    rms(broyden)= 0.20840E-06
  rms(prec ) = 0.57902E-06
  weight for this iteration     100.00

 eigenvalues of (default mixing * dielectric matrix)
  average eigenvalue GAMMA=   1.7361
  3.3990  2.7483  2.5125  2.2348  1.6598  0.6552  1.2235  0.9451  0.9917  0.9917

 Free energy of the ion-electron system (eV)
  -Hartree energ DENC   =        -0.06714927
  -V(xc)+E(xc)   XCENC  =         0.00034787
  PAW double counting   =        -0.00000000       -0.00000000
  entropy T*S    EENTRO =         0.00000000
  eigenvalues    EBANDS =        -0.19125501
  free energy    TOTEN  =        -0.25805641 eV

  energy without entropy =       -0.25805641

[...]

 k-point 244 :       0.5000   -0.0000    0.5000
  band No.  band energies     occupation
      1      -0.0001      0.00000
      2      -0.0001      0.00000
      3      -0.0001      0.00000
      4      -0.0001      0.00000
      5      -0.0000      0.00000
      6      -0.0000      0.00000
      7      -0.0001      0.00000
      8      -0.0000      0.00000

------------------------ aborting loop because EDIFF is reached ----------------------------------------

 INTERNAL STRAIN TENSOR  FOR ION    1  DIRECTION 1   (eV/Angst):
    -0.00045 -0.00000  0.00000
     0.00000 -0.00063  0.00000
     0.00000  0.00000 -0.00063

 POSITION                   FORCE-CONSTANT FOR ION    1 DIRECTION 1 (eV/Angst/Angst)
      0.00000      0.00000      0.00000         0.005803     -0.000000      0.000000
    total drift:                                0.005803     -0.000000      0.000000

 BORN EFFECTIVE CHARGE FOR ION    1 DIRECTION 1 :  -0.000  -0.000   0.000
                   rigid augmentation           :   1.774  -0.000   0.000
                   ionic contribution           :   8.000  -0.000   0.000
                   Berry contribution           :  -9.774   0.000  -0.000

  LATTYP: Found a face centered cubic cell.
 ALAT       =     6.4929347920

  Lattice vectors:

 A1 = (  -3.2464673960,   0.0000000000,   3.2464673960)
 A2 = (   0.0000000000,   3.2464673960,   3.2464673960)
 A3 = (  -3.2464673960,   3.2464673960,   0.0000000000)

Analysis of symmetry for initial positions (statically):
 Subroutine PRICEL returns:
 Original cell was already a primitive cell.

[...]

The static configuration has the point symmetry O_h .

Analysis of symmetry for dynamics (positions and initial velocities):
 Subroutine PRICEL returns:
 Original cell was already a primitive cell.

 Routine SETGRP: Setting up the symmetry group for a
 face centered cubic supercell.

 Subroutine GETGRP returns: Found 48 space group operations
 (whereof 48 operations were pure point group operations)
 out of a pool of 48 trial point group operations.

The dynamic configuration has the point symmetry O_h .

 Subroutine INISYM returns: Found 48 space group operations
 (whereof 48 operations are pure point group operations),
 and found     1 'primitive' translations

 MACROSCOPIC STATIC DIELECTRIC TENSOR (including local field effects in DFT)
           2.052733    -0.000000     0.000000
          -0.000000     2.052733    -0.000000
           0.000000    -0.000000     2.052733

 PIEZOELECTRIC TENSOR  for field in x, y, z        (e  Angst)
          XX          YY          ZZ          XY          YZ          ZX
  x     0.00007     0.00006     0.00006    -0.00000    -0.00000     0.00000
  y    -0.00009    -0.00005    -0.00009     0.00000     0.00000    -0.00000
  z    -0.00006    -0.00006    -0.00007    -0.00000     0.00000    -0.00000

 PIEZOELECTRIC TENSOR  for field in x, y, z        (C/m^2)
          XX          YY          ZZ          XY          YZ          ZX
  x     0.00000     0.00000     0.00000     0.00000     0.00000     0.00000
  y     0.00000     0.00000     0.00000     0.00000     0.00000     0.00000
  z     0.00000     0.00000     0.00000     0.00000     0.00000     0.00000

 BORN EFFECTIVE CHARGES (in e, cummulative output)
 ion    1
    1     0.00000     0.00000     0.00000
    2     0.00000     0.00000     0.00000
    3     0.00000     0.00000     0.00000

 INTERNAL STRAIN TENSOR FOR ION    1 for displacements in x,y,z  (eV/Angst):
          X           Y           Z          XY          YZ          ZX
  x     0.00000     0.00000     0.00000     0.00000     0.00000     0.00000
  y     0.00000     0.00000     0.00000     0.00000     0.00000     0.00000
  z     0.00000     0.00000     0.00000     0.00000     0.00000     0.00000

 SECOND DERIVATIVES (NOT SYMMETRIZED)
               1X          1Y          1Z
  1X     0.005803   -0.000000    0.000000
  1Y    -0.000000    0.005803   -0.000000
  1Z     0.000000   -0.000000    0.005803

 Eigenvectors and eigenvalues of the dynamical matrix

   1 f/i=    0.103935 THz     0.653041 2PiTHz    3.466887 cm-1     0.429839 meV
             X         Y         Z           dx          dy          dz
      0.000000  0.000000  0.000000    -0.216029    0.976387    0.000000

[...]

   3 f/i=    0.103935 THz     0.653041 2PiTHz    3.466887 cm-1     0.429839 meV
             X         Y         Z           dx          dy          dz
      0.000000  0.000000  0.000000     0.000000    0.000000    1.000000

 MACROSCOPIC STATIC DIELECTRIC TENSOR IONIC CONTRIBUTION
           0.000000     0.000000     0.000000
           0.000000     0.000000     0.000000
           0.000000     0.000000     0.000000

 ELASTIC MODULI IONIC CONTR (kBar)
 Direction    XX          YY          ZZ          XY          YZ          ZX
 XX           0.0000      0.0000      0.0000      0.0000      0.0000      0.0000
 YY           0.0000      0.0000      0.0000      0.0000      0.0000      0.0000
 ZZ           0.0000      0.0000      0.0000      0.0000      0.0000      0.0000
 XY           0.0000      0.0000      0.0000      0.0000      0.0000      0.0000
 YZ           0.0000      0.0000      0.0000      0.0000      0.0000      0.0000
 ZX           0.0000      0.0000      0.0000      0.0000      0.0000      0.0000

 PIEZOELECTRIC TENSOR IONIC CONTR  for field in x, y, z        (C/m^2)
          XX          YY          ZZ          XY          YZ          ZX
  x     0.00000     0.00000     0.00000     0.00000     0.00000     0.00000
  y     0.00000     0.00000     0.00000     0.00000     0.00000     0.00000
  z     0.00000     0.00000     0.00000     0.00000     0.00000     0.00000