 vasp.5.4.4.18Apr17-6-g9f103f2a35 (build Aug 24 2017 11:22:49) complex

 executed on             LinuxIFC date 2023.12.25  13:07:12

 INCAR:
 POTCAR:    PAW_PBE Na_pv 19Sep2006
 POTCAR:    PAW_PBE F 08Apr2002

 POTCAR:    PAW_PBE Na_pv 19Sep2006
   VRHFIN =Na: p6s1

   TITEL  = PAW_PBE Na_pv 19Sep2006
   POMASS =   22.990; ZVAL   =    7.000    mass and valenz
   ENMAX  =  259.561; ENMIN  =  194.671 eV

 POTCAR:    PAW_PBE F 08Apr2002
   VRHFIN =F: s2p5

   TITEL  = PAW_PBE F 08Apr2002
   POMASS =   18.998; ZVAL   =    7.000    mass and valenz
   ENMAX  =  400.000; ENMIN  =  300.000 eV

  PAW_PBE Na_pv 19Sep2006               :
  PAW_PBE F 08Apr2002                   :

 POSCAR: Na1 F1
  positions in direct lattice
 exchange correlation table for  LEXCH =        8
   RHO(1)=    0.500       N(1)  =     2000
   RHO(2)=  100.500       N(2)  =     4000

 ion  position               nearest neighbor table
   1  0.000  0.000  0.000-   2 2.29   2 2.29   2 2.29   2 2.29   2 2.29   2 2.29
   2  0.500  0.500  0.500-   1 2.29   1 2.29   1 2.29   1 2.29   1 2.29   1 2.29

  LATTYP: Found a face centered cubic cell.
 ALAT       =     4.5717883123

  Lattice vectors:

 A1 = (  -2.2858941561,   0.0000000000,   2.2858941561)
 A2 = (   0.0000000000,   2.2858941561,   2.2858941561)
 A3 = (  -2.2858941561,   2.2858941561,   0.0000000000)

Analysis of symmetry for initial positions (statically):
 Subroutine PRICEL returns:
 Original cell was already a primitive cell.

 Routine SETGRP: Setting up the symmetry group for a
 face centered cubic supercell.

 Subroutine GETGRP returns: Found  8 space group operations
 (whereof  8 operations were pure point group operations)
 out of a pool of 48 trial point group operations.

The static configuration has the point symmetry C_4v.

Analysis of symmetry for dynamics (positions and initial velocities):
 Subroutine PRICEL returns:
 Original cell was already a primitive cell.

[...]

The dynamic configuration has the point symmetry C_4v.

 Subroutine INISYM returns: Found  8 space group operations
 (whereof  8 operations are pure point group operations),
 and found     1 'primitive' translations

 KPOINTS: pymatgen with grid density = 3000 / numb

Automatic generation of k-mesh.
Space group operators:
 irot       det(A)        alpha          n_x          n_y          n_z        tau_x        tau_y        tau_z
    1     1.000000     0.000000     1.000000     0.000000     0.000000     0.000000     0.000000     0.000000
    2     1.000000    90.000000    -1.000000     0.000000     0.000000     0.000000     0.000000     0.000000
    3    -1.000000   180.000000    -0.000000     0.000000     1.000000     0.000000     0.000000     0.000000
    4    -1.000000   180.000000     0.000000     0.707107     0.707107     0.000000     0.000000     0.000000
    5    -1.000000   180.000000    -0.000000     1.000000    -0.000000     0.000000     0.000000     0.000000
    6     1.000000    90.000000     1.000000     0.000000     0.000000     0.000000     0.000000     0.000000
    7     1.000000   180.000000     1.000000     0.000000     0.000000     0.000000     0.000000     0.000000
    8    -1.000000   180.000000    -0.000000    -0.707107     0.707107     0.000000     0.000000     0.000000

 Subroutine IBZKPT returns following result:

 Found    163 irreducible k-points:

 Following reciprocal coordinates:
            Coordinates               Weight
  0.000000  0.000000  0.000000      1.000000
  0.083333 -0.000000 -0.000000      8.000000
  0.166667 -0.000000 -0.000000      8.000000
  0.250000  0.000000 -0.000000      8.000000
  0.333333 -0.000000 -0.000000      8.000000
  0.416667  0.000000  0.000000      8.000000
  0.500000  0.000000 -0.000000      4.000000
  0.083333  0.083333  0.000000      4.000000
  0.166667  0.083333  0.000000     16.000000
  0.250000  0.083333  0.000000     16.000000
  0.333333  0.083333  0.000000     16.000000
  0.416667  0.083333  0.000000     16.000000
  0.500000  0.083333 -0.000000     16.000000
 -0.416667  0.083333  0.000000     16.000000
 -0.333333  0.083333  0.000000     16.000000
 -0.250000  0.083333  0.000000     16.000000
 -0.166667  0.083333  0.000000     16.000000
 -0.083333  0.083333  0.000000      8.000000
  0.166667  0.166667  0.000000      4.000000
  0.250000  0.166667  0.000000     16.000000
  0.333333  0.166667  0.000000     16.000000
  0.416667  0.166667  0.000000     16.000000
  0.500000  0.166667  0.000000     16.000000
 -0.416667  0.166667  0.000000     16.000000
 -0.333333  0.166667  0.000000     16.000000
 -0.250000  0.166667  0.000000     16.000000
 -0.166667  0.166667  0.000000      8.000000
  0.250000  0.250000  0.000000      4.000000
  0.333333  0.250000  0.000000     16.000000
  0.416667  0.250000  0.000000     16.000000
  0.500000  0.250000  0.000000     16.000000
 -0.416667  0.250000  0.000000     16.000000
 -0.333333  0.250000  0.000000     16.000000
 -0.250000  0.250000 -0.000000      8.000000
  0.333333  0.333333  0.000000      4.000000
  0.416667  0.333333  0.000000     16.000000
  0.500000  0.333333  0.000000     16.000000
 -0.416667  0.333333 -0.000000     16.000000
 -0.333333  0.333333  0.000000      8.000000
  0.416667  0.416667  0.000000      4.000000
  0.500000  0.416667  0.000000     16.000000
 -0.416667  0.416667 -0.000000      8.000000
  0.500000  0.500000  0.000000      2.000000
  0.083333  0.000000  0.083333      2.000000
  0.166667 -0.000000  0.083333      8.000000
  0.250000  0.000000  0.083333      8.000000
  0.333333  0.000000  0.083333      8.000000
  0.416667 -0.000000  0.083333      8.000000
  0.500000 -0.000000  0.083333      8.000000
 -0.416667 -0.000000  0.083333      8.000000
 -0.333333  0.000000  0.083333      8.000000
 -0.250000 -0.000000  0.083333      8.000000
 -0.166667  0.000000  0.083333      8.000000
 -0.083333 -0.000000  0.083333      4.000000
  0.250000  0.166667  0.083333      8.000000
  0.333333  0.166667  0.083333     16.000000
  0.416667  0.166667  0.083333     16.000000
  0.500000  0.166667  0.083333     16.000000
 -0.416667  0.166667  0.083333      8.000000
  0.166667  0.250000  0.083333      8.000000
[...]
  0.333333 -0.083333  0.250000      8.000000
  0.333333  0.000000  0.333333      2.000000
  0.416667  0.000000  0.333333      8.000000
  0.500000  0.000000  0.333333      8.000000
 -0.416667 -0.000000  0.333333      8.000000
 -0.333333 -0.000000  0.333333      4.000000
  0.416667 -0.250000  0.333333      8.000000
  0.416667 -0.166667  0.333333     16.000000
  0.500000 -0.166667  0.333333      4.000000
  0.416667 -0.083333  0.333333      8.000000
  0.416667  0.000000  0.416667      2.000000
  0.500000  0.000000  0.416667      8.000000
 -0.416667 -0.000000  0.416667      4.000000
  0.500000 -0.083333  0.416667      4.000000
  0.500000  0.000000  0.500000      1.000000

 Following cartesian coordinates:
            Coordinates               Weight
  0.000000  0.000000  0.000000      1.000000
 -0.018228 -0.018228  0.018228      8.000000
 -0.036455 -0.036455  0.036455      8.000000
 -0.054683 -0.054683  0.054683      8.000000
 -0.072911 -0.072911  0.072911      8.000000
 -0.091139 -0.091139  0.091139      8.000000
 -0.109366 -0.109366  0.109366      4.000000
  0.000000  0.000000  0.036455      4.000000
 -0.018228 -0.018228  0.054683     16.000000
 -0.036455 -0.036455  0.072911     16.000000
 -0.054683 -0.054683  0.091139     16.000000
 -0.072911 -0.072911  0.109366     16.000000
 -0.091139 -0.091139  0.127594     16.000000
  0.109366  0.109366 -0.072911     16.000000
  0.091139  0.091139 -0.054683     16.000000
  0.072911  0.072911 -0.036455     16.000000
  0.054683  0.054683 -0.018228     16.000000
  0.036455  0.036455  0.000000      8.000000
  0.000000  0.000000  0.072911      4.000000
 -0.018228 -0.018228  0.091139     16.000000
 -0.036455 -0.036455  0.109366     16.000000
 -0.054683 -0.054683  0.127594     16.000000
 -0.072911 -0.072911  0.145822     16.000000
  0.127594  0.127594 -0.054683     16.000000
  0.109366  0.109366 -0.036455     16.000000
  0.091139  0.091139 -0.018228     16.000000
  0.072911  0.072911  0.000000      8.000000
  0.000000  0.000000  0.109366      4.000000
 -0.018228 -0.018228  0.127594     16.000000
 -0.036455 -0.036455  0.145822     16.000000
 -0.054683 -0.054683  0.164050     16.000000
  0.145822  0.145822 -0.036455     16.000000
  0.127594  0.127594 -0.018228     16.000000
  0.109366  0.109366  0.000000      8.000000
  0.000000  0.000000  0.145822      4.000000
 -0.018228 -0.018228  0.164050     16.000000
 -0.036455 -0.036455  0.182277     16.000000
  0.164050  0.164050 -0.018228     16.000000
  0.145822  0.145822  0.000000      8.000000
  0.000000  0.000000  0.182277      4.000000
 -0.018228 -0.018228  0.200505     16.000000
  0.182277  0.182277  0.000000      8.000000
  0.000000  0.000000  0.218733      2.000000
 -0.036455  0.000000  0.000000      2.000000
 -0.054683 -0.018228  0.018228      8.000000
 -0.072911 -0.036455  0.036455      8.000000
 -0.091139 -0.054683  0.054683      8.000000
 -0.109366 -0.072911  0.072911      8.000000
 -0.127594 -0.091139  0.091139      8.000000
  0.072911  0.109366 -0.109366      8.000000
  0.054683  0.091139 -0.091139      8.000000
  0.036455  0.072911 -0.072911      8.000000
  0.018228  0.054683 -0.054683      8.000000
  0.000000  0.036455 -0.036455      4.000000
 -0.036455  0.000000  0.072911      8.000000
 -0.054683 -0.018228  0.091139     16.000000
 -0.072911 -0.036455  0.109366     16.000000
 -0.091139 -0.054683  0.127594     16.000000
  0.109366  0.145822 -0.072911      8.000000
  0.000000  0.036455  0.072911      8.000000
[...]
 -0.145822 -0.036455  0.000000      8.000000
 -0.145822  0.000000  0.000000      2.000000
 -0.164050 -0.018228  0.018228      8.000000
 -0.182277 -0.036455  0.036455      8.000000
  0.018228  0.164050 -0.164050      8.000000
  0.000000  0.145822 -0.145822      4.000000
 -0.218733 -0.072911 -0.036455      8.000000
 -0.200505 -0.054683 -0.018228     16.000000
 -0.218733 -0.072911  0.000000      4.000000
 -0.182277 -0.036455  0.000000      8.000000
 -0.182277  0.000000  0.000000      2.000000
 -0.200505 -0.018228  0.018228      8.000000
 -0.000000  0.182277 -0.182277      4.000000
 -0.218733 -0.036455 -0.000000      4.000000
 -0.218733  0.000000  0.000000      1.000000

 Subroutine IBZKPT_HF returns following result:

 Found   1728 k-points in 1st BZ
 the following   1728 k-points will be used (e.g. in the exchange kernel)
 Following reciprocal coordinates:   # in IRBZ
  0.000000  0.000000  0.000000    0.00057870   1 t-inv F
  0.083333 -0.000000 -0.000000    0.00057870   2 t-inv F
  0.166667 -0.000000 -0.000000    0.00057870   3 t-inv F
  0.250000  0.000000 -0.000000    0.00057870   4 t-inv F
  0.333333 -0.000000 -0.000000    0.00057870   5 t-inv F
  0.416667  0.000000  0.000000    0.00057870   6 t-inv F
  0.500000  0.000000 -0.000000    0.00057870   7 t-inv F
  0.083333  0.083333  0.000000    0.00057870   8 t-inv F
  0.166667  0.083333  0.000000    0.00057870   9 t-inv F
  0.250000  0.083333  0.000000    0.00057870  10 t-inv F
  0.333333  0.083333  0.000000    0.00057870  11 t-inv F
  0.416667  0.083333  0.000000    0.00057870  12 t-inv F
  0.500000  0.083333 -0.000000    0.00057870  13 t-inv F
[...]
      9      17.3656      0.00000
     10      17.3656      0.00000
     11      17.3657      0.00000
     12      20.3137      0.00000
     13      22.5359      0.00000
     14      22.5359      0.00000
     15      25.6398      0.00000
     16      25.6398      0.00000

[...]

 soft charge-density along one line, spin component           1
         0         1         2         3         4         5         6         7         8         9
 total charge-density along one line

------------------------ aborting loop because EDIFF is reached ----------------------------------------

  FORCE on cell =-STRESS in cart. coord.  units (eV):
  Direction    XX          YY          ZZ          XY          YZ          ZX
  Alpha Z    40.23035    40.23035    40.23035
  Ewald    -291.93072  -291.93072  -291.93072    -0.00000    -0.00000     0.00000
  Hartree   128.52077   128.52077   128.52077    -0.00000     0.00000    -0.00000
  E(xc)     -78.76587   -78.76587   -78.76587    -0.00002     0.00002    -0.00002
  Local      -7.93245    -7.93245    -7.93245    -0.00003     0.00003    -0.00003
  n-local   -62.57355   -62.93183   -62.21527     0.21778    -0.03040    -0.09321
  augment    59.82443    59.82443    59.82443     0.00004    -0.00004     0.00004
  Kinetic   213.29047   214.31777   212.26316    -2.65100     0.37885     1.04543
  Fock        0.00000     0.00000     0.00000     0.00000     0.00000     0.00000
  Total       0.66341     0.66341     0.66341    -0.00000     0.00000     0.00000
  in kB      44.49319    44.49319    44.49319    -0.00000     0.00000     0.00000

 VOLUME and BASIS-vectors are now :
  energy-cutoff  :      520.00
  volume of cell :       23.89
      direct lattice vectors                 reciprocal lattice vectors
    -2.285894156  0.000000000  2.285894156    -0.218732787 -0.218732787  0.218732787
     0.000000000  2.285894156  2.285894156     0.218732787  0.218732787  0.218732787
    -2.285894156  2.285894156  0.000000000    -0.218732787  0.218732787 -0.218732787

  length of vectors
     3.232742518  3.232742518  3.232742518     0.378856301  0.378856301  0.378856301

 FORCES acting on ions
    electron-ion (+dipol)            ewald-force                    non-local-force                 convergence-correction
   -.232E-04 0.767E-12 0.519E-12   0.217E-04 -.631E-14 -.897E-15   0.189E-05 0.108E-22 0.130E-22   0.118E-06 -.748E-11 -.748E-11
   0.203E-04 0.889E-11 0.791E-11   -.217E-04 0.752E-14 -.201E-14   0.903E-06 -.639E-23 0.336E-24   0.196E-07 0.295E-12 0.300E-12
   -.291E-05 0.966E-11 0.843E-11   0.260E-14 0.121E-14 -.291E-14   0.280E-05 0.440E-23 0.134E-22   0.138E-06 -.718E-11 -.718E-11

 POSITION                                       TOTAL-FORCE (eV/Angst)
      0.00000      0.00000      0.00000         0.000001     -0.000000     -0.000000
     -2.28589      2.28589      2.28589        -0.000001      0.000000      0.000000
    total drift:                                0.000000      0.000000      0.000000

  FREE ENERGIE OF THE ION-ELECTRON SYSTEM (eV)
  free  energy   TOTEN  =        -8.54014258 eV

  energy  without entropy=       -8.54014258  energy(sigma->0) =       -8.54014258

 Found     4 degrees of freedom:

     directions for atom     1:  y
     directions for atom     2:  y
 Linear response reoptimize wavefunctions
 Linear response to external field (no local field effect), progress :
  Direction:   1
  LATTYP: Found a face centered cubic cell.
 ALAT       =     4.5717883123

[...]

----------------------------------------- Iteration    1(   1)  ---------------------------------------

 Free energy of the ion-electron system (eV)
  -Hartree energ DENC   =         0.00000000
  -V(xc)+E(xc)   XCENC  =         0.00000000
  PAW double counting   =         0.00000000        0.00000000
  entropy T*S    EENTRO =         0.00000000
  eigenvalues    EBANDS =        -0.05188966
  free energy    TOTEN  =        -0.05188966 eV

  energy without entropy =       -0.05188966

[...]

 change of polarisation eV/A/(eV/A) component  1 :     0.118    -0.020     0.008
 dielectric tensor                  component  1 :     1.894    -0.148     0.064

 Linear response to external field (no local field effect), progress :
  Direction:   2
  LATTYP: Found a face centered cubic cell.
 ALAT       =     4.5717883123

[...]

The dynamic configuration has the point symmetry C_1h.

[...]

 Linear response to external field (no local field effect), progress :
  Direction:   3
  LATTYP: Found a face centered cubic cell.
 ALAT       =     4.5717883123

[...]

 HEAD OF MICROSCOPIC STATIC DIELECTRIC TENSOR (INDEPENDENT PARTICLE, excluding Hartree and local field effects)
           1.894315     0.000000    -0.000000
           0.000000     1.894310     0.000000
          -0.000000     0.000000     1.894310

 Linear response to external field, progress :
  Direction:   1
  LATTYP: Found a face centered cubic cell.
 ALAT       =     4.5717883123

[...]

 PIEZOELECTRIC TENSOR FIELD DIRECTION 1  (e Angst)
    -0.00001 -0.00000  0.00000           ( -0.00000  0.00000  0.00000)
     0.00000  0.00002  0.00000           (  0.00000  0.00000  0.00000)
     0.00000  0.00000  0.00002           (  0.00000  0.00000  0.00000)

 PIEZOELECTRIC TENSOR FIELD DIRECTION 1  (C/m^2)
    -0.00001 -0.00000  0.00000
     0.00000  0.00001  0.00000
     0.00000  0.00000  0.00001

      POSITION         DIRECTION 1           BORN EFFECTIVE CHARGE    (rigid.aug.   ionic)
      0.00000      0.00000      0.00000     1.00086 -0.00000 -0.00000 ( -4.48069  7.00000)
     -2.28589      2.28589      2.28589    -1.00079 -0.00000 -0.00000 ( -1.28962  7.00000)
    total drift (improves with k-points):   0.00007 -0.00000 -0.00000

[...]

 Linear response to external field, progress :
  Direction:   3
  LATTYP: Found a face centered cubic cell.
 ALAT       =     4.5717883123

[...]

 change of polarisation eV/A/(eV/A) component  3 :    -0.000     0.000     0.115
 dielectric tensor                  component  3 :    -0.000     0.003     1.869

 PIEZOELECTRIC TENSOR FIELD DIRECTION 3  (e Angst)
    -0.00000  0.00000 -0.00002           (  0.00000  0.00000  0.00000)
     0.00000 -0.00001  0.00000           (  0.00000  0.00000  0.00000)
    -0.00002  0.00000  0.00001           (  0.00000  0.00000  0.00000)

 PIEZOELECTRIC TENSOR FIELD DIRECTION 3  (C/m^2)
    -0.00000  0.00000 -0.00001
     0.00000 -0.00000  0.00000
    -0.00001  0.00000  0.00000

      POSITION         DIRECTION 3           BORN EFFECTIVE CHARGE    (rigid.aug.   ionic)
      0.00000      0.00000      0.00000    -0.00001  0.00000  1.00086 ( -4.48069  7.00000)
     -2.28589      2.28589      2.28589    -0.00000  0.00000 -1.00081 ( -1.28962  7.00000)
    total drift (improves with k-points):  -0.00001  0.00000  0.00005

[...]

 MACROSCOPIC STATIC DIELECTRIC TENSOR (including local field effects in DFT)
           1.868688     0.000000    -0.000000
           0.000000     1.868680     0.000000
          -0.000000     0.000000     1.868680

 Linear response:
   Degrees of freedom DOF   =            4
 Linear response progress:
  Degree of freedom:   1/  4
  LATTYP: Found a face centered cubic cell.
 ALAT       =     4.5717883123

[...]

 INTERNAL STRAIN TENSOR  FOR ION    1  DIRECTION 1   (eV/Angst):
     0.00264  0.00000  0.00000
     0.00000 -0.00077 -0.00000
     0.00000  0.00000 -0.00077

 POSITION                   FORCE-CONSTANT FOR ION    1 DIRECTION 1 (eV/Angst/Angst)
      0.00000      0.00000      0.00000        -2.918379     -0.000000      0.000000
     -2.28589      2.28589      2.28589         2.918379      0.000000     -0.000000
    total drift:                                0.000000      0.000000      0.000000

 BORN EFFECTIVE CHARGE FOR ION    1 DIRECTION 1 :   1.001   0.000  -0.000
                   rigid augmentation           :  -4.481   0.000  -0.000
                   ionic contribution           :   7.000   0.000  -0.000
                   Berry contribution           :  -1.518  -0.000   0.000

 Linear response progress:
  Degree of freedom:   2/  4
  LATTYP: Found a face centered cubic cell.
 ALAT       =     4.5717883123

[...]

 Linear response progress:
  Degree of freedom:   4/  4
  LATTYP: Found a face centered cubic cell.
 ALAT       =     4.5717883123

[...]

The dynamic configuration has the point symmetry C_1h.

[...]

----------------------------------------- Iteration    8(  12)  ---------------------------------------

 Broyden mixing:
  rms(total) = 0.15927E-05    rms(broyden)= 0.15927E-05
  rms(prec ) = 0.30713E-05
  weight for this iteration     100.00

 eigenvalues of (default mixing * dielectric matrix)
  average eigenvalue GAMMA=   1.8999
  2.9404  2.8538  2.3799  2.3799  2.3906  1.9966  0.9588  1.0261  1.0261  1.0468

 Free energy of the ion-electron system (eV)
  -Hartree energ DENC   =        -0.17786289
  -V(xc)+E(xc)   XCENC  =         0.00039083
  PAW double counting   =         0.00000532       -0.00000587
  entropy T*S    EENTRO =        -0.00000000
  eigenvalues    EBANDS =        -0.35194416
  free energy    TOTEN  =        -0.52941677 eV

  energy without entropy =       -0.52941677

[...]

 k-point 476 :       0.0000   -0.5000   -0.5000
  band No.  band energies     occupation
      1      -0.0001      0.00000
      2       0.0003      0.00000
      3      -0.0001      0.00000
      4      -0.0001      0.00000
      5       0.0003      0.00000
      6       0.0002      0.00000
      7       0.0003      0.00000
      8       0.0000      0.00000
      9       0.0002      0.00000
     10       0.0000      0.00000
     11       0.0001      0.00000
     12       0.0001      0.00000
     13       0.0000      0.00000
     14       0.0000      0.00000
     15       0.0000      0.00000
     16       0.0001      0.00000

------------------------ aborting loop because EDIFF is reached ----------------------------------------

 INTERNAL STRAIN TENSOR  FOR ION    2  DIRECTION 2   (eV/Angst):
     0.00046  0.00633  0.00000
     0.00633  0.00519  0.00000
     0.00000  0.00000 -0.00068

 POSITION                   FORCE-CONSTANT FOR ION    2 DIRECTION 2 (eV/Angst/Angst)
      0.00000      0.00000      0.00000        -0.000377      2.919356      0.000000
     -2.28589      2.28589      2.28589         0.000377     -2.919356     -0.000000
    total drift:                                0.000000      0.000000      0.000000

 BORN EFFECTIVE CHARGE FOR ION    2 DIRECTION 2 :  -0.000  -1.001  -0.000
                   rigid augmentation           :   0.000  -1.290   0.000
                   ionic contribution           :   0.000   7.000   0.000
                   Berry contribution           :  -0.000  -6.711  -0.000

  LATTYP: Found a face centered cubic cell.
 ALAT       =     4.5717883123

  Lattice vectors:

 A1 = (  -2.2858941561,   0.0000000000,   2.2858941561)
 A2 = (   0.0000000000,   2.2858941561,   2.2858941561)
 A3 = (  -2.2858941561,   2.2858941561,   0.0000000000)

Analysis of symmetry for initial positions (statically):
 Subroutine PRICEL returns:
 Original cell was already a primitive cell.

[...]

The static configuration has the point symmetry C_4v.

Analysis of symmetry for dynamics (positions and initial velocities):
 Subroutine PRICEL returns:
 Original cell was already a primitive cell.

 Routine SETGRP: Setting up the symmetry group for a
 face centered cubic supercell.

 Subroutine GETGRP returns: Found  8 space group operations
 (whereof  8 operations were pure point group operations)
 out of a pool of 48 trial point group operations.

The dynamic configuration has the point symmetry C_4v.

 Subroutine INISYM returns: Found  8 space group operations
 (whereof  8 operations are pure point group operations),
 and found     1 'primitive' translations

 MACROSCOPIC STATIC DIELECTRIC TENSOR (including local field effects in DFT)
           1.868688     0.000000    -0.000000
           0.000000     1.868680     0.000000
          -0.000000     0.000000     1.868680

 PIEZOELECTRIC TENSOR  for field in x, y, z        (e  Angst)
          XX          YY          ZZ          XY          YZ          ZX
  x    -0.00001     0.00002     0.00002     0.00000     0.00000     0.00000
  y    -0.00002     0.00001    -0.00001     0.00004    -0.00000     0.00000
  z    -0.00000    -0.00001     0.00001     0.00000     0.00000    -0.00002

 PIEZOELECTRIC TENSOR  for field in x, y, z        (C/m^2)
          XX          YY          ZZ          XY          YZ          ZX
  x    -0.00001     0.00001     0.00001     0.00000     0.00000    -0.00000
  y    -0.00000     0.00000     0.00000     0.00001    -0.00000     0.00000
  z     0.00000    -0.00000    -0.00000     0.00000     0.00000     0.00001

 BORN EFFECTIVE CHARGES (in e, cummulative output)
 ion    1
    1     1.00083     0.00000     0.00000
    2     0.00000     1.00083     0.00000
    3    -0.00000     0.00000     1.00083
 ion    2
    1    -1.00083    -0.00000    -0.00000
    2    -0.00000    -1.00083    -0.00000
    3     0.00000    -0.00000    -1.00083

 INTERNAL STRAIN TENSOR FOR ION    1 for displacements in x,y,z  (eV/Angst):
          X           Y           Z          XY          YZ          ZX
  x     0.00264    -0.00077    -0.00077    -0.00000    -0.00000     0.00000
  y    -0.00000     0.00000     0.00000    -0.00722     0.00000    -0.00000
  z     0.00000     0.00000     0.00000    -0.00000    -0.00000    -0.00721

 INTERNAL STRAIN TENSOR FOR ION    2 for displacements in x,y,z  (eV/Angst):
          X           Y           Z          XY          YZ          ZX
  x    -0.00275     0.00012     0.00012     0.00000     0.00000    -0.00000
  y     0.00000     0.00000     0.00000     0.00633    -0.00000     0.00000
  z    -0.00000    -0.00000     0.00000     0.00000     0.00000     0.00633

 SECOND DERIVATIVES (NOT SYMMETRIZED)
               1X          1Y          1Z          2X          2Y          2Z
  1X    -2.918379   -0.000000    0.000000    2.918379    0.000000   -0.000000
  1Y    -0.000000   -2.918405   -0.000000    0.000000    2.918405    0.000000
  1Z     0.000000   -0.000000   -2.918405   -0.000000    0.000000    2.918405
  2X     2.919343    0.000000   -0.000000   -2.919343   -0.000000    0.000000
  2Y     0.000000    2.919356    0.000000   -0.000000   -2.919356   -0.000000
  2Z    -0.000000    0.000000    2.919356    0.000000   -0.000000   -2.919356

 Eigenvectors and eigenvalues of the dynamical matrix

   1 f  =    8.281355 THz    52.033286 2PiTHz  276.236247 cm-1    34.248942 meV
             X         Y         Z           dx          dy          dz
      0.000000  0.000000  0.000000    -0.000000   -0.672593    0.000000
     -2.285894  2.285894  2.285894     0.000000    0.740012    0.000000

[...]

   3 f  =    8.281328 THz    52.033120 2PiTHz  276.235367 cm-1    34.248833 meV
             X         Y         Z           dx          dy          dz
      0.000000  0.000000  0.000000     0.672593   -0.000000    0.000000
     -2.285894  2.285894  2.285894    -0.740013    0.000000   -0.000000

   4 f/i=    0.000672 THz     0.004220 2PiTHz    0.022404 cm-1     0.002778 meV
             X         Y         Z           dx          dy          dz
      0.000000  0.000000  0.000000    -0.000000   -0.207114   -0.710438
     -2.285894  2.285894  2.285894    -0.000000   -0.188245   -0.645713

[...]

   6 f/i=    0.000680 THz     0.004273 2PiTHz    0.022685 cm-1     0.002813 meV
             X         Y         Z           dx          dy          dz
      0.000000  0.000000  0.000000     0.740013   -0.000000    0.000000
     -2.285894  2.285894  2.285894     0.672593   -0.000000    0.000000

 MACROSCOPIC STATIC DIELECTRIC TENSOR IONIC CONTRIBUTION
           2.599391     0.000012    -0.000006
           0.000012     2.599407    -0.000000
          -0.000006    -0.000000     2.599410

 ELASTIC MODULI IONIC CONTR (kBar)
 Direction    XX          YY          ZZ          XY          YZ          ZX
 XX          -0.0002      0.0000      0.0000     -0.0000      0.0000      0.0000
 YY           0.0000     -0.0000     -0.0000      0.0000     -0.0000      0.0000
 ZZ           0.0000     -0.0000     -0.0000      0.0000     -0.0000      0.0000
 XY          -0.0000      0.0000      0.0000     -0.0011      0.0000      0.0000
 YZ           0.0000     -0.0000     -0.0000      0.0000     -0.0000     -0.0000
 ZX           0.0000      0.0000      0.0000      0.0000     -0.0000     -0.0011

 PIEZOELECTRIC TENSOR IONIC CONTR  for field in x, y, z        (C/m^2)
          XX          YY          ZZ          XY          YZ          ZX
  x     0.00062    -0.00010    -0.00010     0.00000    -0.00000     0.00000
  y     0.00000    -0.00000    -0.00000    -0.00156     0.00000     0.00000
  z    -0.00000     0.00000     0.00000     0.00000    -0.00000    -0.00156