 vasp.5.4.4.18Apr17-6-g9f103f2a35 (build Aug 24 2017 11:22:49) complex

 executed on             LinuxIFC date 2023.12.25  13:07:29

 INCAR:
 POTCAR:    PAW_PBE Ga_d 06Jul2010
 POTCAR:    PAW_PBE As 22Sep2009

 POTCAR:    PAW_PBE Ga_d 06Jul2010
   VRHFIN =Ga: s2p1

   TITEL  = PAW_PBE Ga_d 06Jul2010
   POMASS =   69.723; ZVAL   =   13.000    mass and valenz
   ENMAX  =  282.691; ENMIN  =  212.018 eV

 POTCAR:    PAW_PBE As 22Sep2009
   VRHFIN =As: s2p3

   TITEL  = PAW_PBE As 22Sep2009
   POMASS =   74.922; ZVAL   =    5.000    mass and valenz
   ENMAX  =  208.702; ENMIN  =  156.526 eV

  PAW_PBE Ga_d 06Jul2010                :
  PAW_PBE As 22Sep2009                  :

 POSCAR: Ga1 As1
  positions in direct lattice
 exchange correlation table for  LEXCH =        8
   RHO(1)=    0.500       N(1)  =     2000
   RHO(2)=  100.500       N(2)  =     4000

 ion  position               nearest neighbor table
   1  0.000  0.000  0.000-   2 2.49   2 2.49   2 2.49   2 2.49
   2  0.250  0.250  0.250-   1 2.49   1 2.49   1 2.49   1 2.49

  LATTYP: Found a face centered cubic cell.
 ALAT       =     5.7501816576

  Lattice vectors:

 A1 = (  -2.8750908288,   0.0000000000,   2.8750908288)
 A2 = (   0.0000000000,   2.8750908288,   2.8750908288)
 A3 = (  -2.8750908288,   2.8750908288,   0.0000000000)

Analysis of symmetry for initial positions (statically):
 Subroutine PRICEL returns:
 Original cell was already a primitive cell.

 Routine SETGRP: Setting up the symmetry group for a
 face centered cubic supercell.

 Subroutine GETGRP returns: Found  2 space group operations
 (whereof  2 operations were pure point group operations)
 out of a pool of 48 trial point group operations.

The static configuration has the point symmetry C_1h.

Analysis of symmetry for dynamics (positions and initial velocities):
 Subroutine PRICEL returns:
 Original cell was already a primitive cell.

[...]

The dynamic configuration has the point symmetry C_1h.

 Subroutine INISYM returns: Found  2 space group operations
 (whereof  2 operations are pure point group operations),
 and found     1 'primitive' translations

 KPOINTS: pymatgen with grid density = 3000 / numb

Automatic generation of k-mesh.
Space group operators:
 irot       det(A)        alpha          n_x          n_y          n_z        tau_x        tau_y        tau_z
    1     1.000000     0.000000     1.000000     0.000000     0.000000     0.000000     0.000000     0.000000
    2    -1.000000   180.000000     0.707107    -0.707107     0.000000     0.000000     0.000000     0.000000

 Subroutine IBZKPT returns following result:

 Found    476 irreducible k-points:

 Following reciprocal coordinates:
            Coordinates               Weight
  0.000000  0.000000  0.000000      1.000000
  0.083333  0.000000  0.000000      2.000000
  0.166667  0.000000  0.000000      2.000000
  0.250000  0.000000 -0.000000      2.000000
  0.333333  0.000000  0.000000      2.000000
  0.416667 -0.000000 -0.000000      2.000000
  0.500000  0.000000 -0.000000      1.000000
  0.000000  0.083333 -0.000000      2.000000
  0.083333  0.083333  0.000000      2.000000
  0.166667  0.083333 -0.000000      2.000000
  0.250000  0.083333  0.000000      2.000000
  0.333333  0.083333 -0.000000      2.000000
  0.416667  0.083333  0.000000      2.000000
  0.500000  0.083333 -0.000000      2.000000
 -0.416667  0.083333  0.000000      2.000000
 -0.333333  0.083333 -0.000000      2.000000
 -0.250000  0.083333  0.000000      2.000000
 -0.166667  0.083333  0.000000      2.000000
 -0.083333  0.083333 -0.000000      2.000000
 -0.000000  0.166667  0.000000      2.000000
  0.083333  0.166667  0.000000      2.000000
  0.166667  0.166667  0.000000      2.000000
  0.250000  0.166667  0.000000      2.000000
  0.333333  0.166667  0.000000      2.000000
  0.416667  0.166667 -0.000000      2.000000
  0.500000  0.166667 -0.000000      2.000000
 -0.416667  0.166667  0.000000      2.000000
 -0.333333  0.166667  0.000000      2.000000
 -0.250000  0.166667  0.000000      2.000000
 -0.166667  0.166667  0.000000      2.000000
 -0.083333  0.166667  0.000000      2.000000
 -0.000000  0.250000  0.000000      2.000000
  0.083333  0.250000  0.000000      2.000000
  0.166667  0.250000  0.000000      2.000000
  0.250000  0.250000  0.000000      2.000000
  0.333333  0.250000  0.000000      2.000000
  0.416667  0.250000  0.000000      2.000000
  0.500000  0.250000 -0.000000      2.000000
 -0.416667  0.250000  0.000000      2.000000
 -0.333333  0.250000  0.000000      2.000000
 -0.250000  0.250000 -0.000000      2.000000
 -0.166667  0.250000  0.000000      2.000000
 -0.083333  0.250000  0.000000      2.000000
 -0.000000  0.333333  0.000000      2.000000
  0.083333  0.333333 -0.000000      2.000000
  0.166667  0.333333  0.000000      2.000000
  0.250000  0.333333  0.000000      2.000000
  0.333333  0.333333  0.000000      2.000000
  0.416667  0.333333  0.000000      2.000000
  0.500000  0.333333  0.000000      2.000000
 -0.416667  0.333333  0.000000      2.000000
 -0.333333  0.333333  0.000000      2.000000
 -0.250000  0.333333  0.000000      2.000000
 -0.166667  0.333333 -0.000000      2.000000
 -0.083333  0.333333 -0.000000      2.000000
  0.000000  0.416667 -0.000000      2.000000
  0.083333  0.416667 -0.000000      2.000000
  0.166667  0.416667  0.000000      2.000000
  0.250000  0.416667 -0.000000      2.000000
  0.333333  0.416667  0.000000      2.000000
[...]
  0.333333  0.166667  0.500000      4.000000
  0.416667  0.166667  0.500000      4.000000
  0.500000  0.166667  0.500000      4.000000
 -0.416667  0.166667  0.500000      4.000000
 -0.333333  0.166667  0.500000      4.000000
 -0.250000  0.166667  0.500000      4.000000
 -0.166667  0.166667  0.500000      4.000000
 -0.083333  0.166667  0.500000      4.000000
 -0.000000  0.250000  0.500000      4.000000
  0.083333  0.250000  0.500000      4.000000
  0.166667  0.250000  0.500000      4.000000
  0.250000  0.250000  0.500000      2.000000
 -0.416667  0.250000  0.500000      4.000000
 -0.333333  0.250000  0.500000      4.000000
 -0.250000  0.250000  0.500000      2.000000

 Following cartesian coordinates:
            Coordinates               Weight
  0.000000  0.000000  0.000000      1.000000
 -0.014492 -0.014492  0.014492      2.000000
 -0.028985 -0.028985  0.028985      2.000000
 -0.043477 -0.043477  0.043477      2.000000
 -0.057969 -0.057969  0.057969      2.000000
 -0.072461 -0.072461  0.072461      2.000000
 -0.086954 -0.086954  0.086954      1.000000
  0.014492  0.014492  0.014492      2.000000
 -0.000000  0.000000  0.028985      2.000000
 -0.014492 -0.014492  0.043477      2.000000
 -0.028985 -0.028985  0.057969      2.000000
 -0.043477 -0.043477  0.072461      2.000000
 -0.057969 -0.057969  0.086954      2.000000
 -0.072461 -0.072461  0.101446      2.000000
  0.086954  0.086954 -0.057969      2.000000
  0.072461  0.072461 -0.043477      2.000000
  0.057969  0.057969 -0.028985      2.000000
  0.043477  0.043477 -0.014492      2.000000
  0.028985  0.028985  0.000000      2.000000
  0.028985  0.028985  0.028985      2.000000
  0.014492  0.014492  0.043477      2.000000
  0.000000  0.000000  0.057969      2.000000
 -0.014492 -0.014492  0.072461      2.000000
 -0.028985 -0.028985  0.086954      2.000000
 -0.043477 -0.043477  0.101446      2.000000
 -0.057969 -0.057969  0.115938      2.000000
  0.101446  0.101446 -0.043477      2.000000
  0.086954  0.086954 -0.028985      2.000000
  0.072461  0.072461 -0.014492      2.000000
  0.057969  0.057969  0.000000      2.000000
  0.043477  0.043477  0.014492      2.000000
  0.043477  0.043477  0.043477      2.000000
  0.028985  0.028985  0.057969      2.000000
  0.014492  0.014492  0.072461      2.000000
  0.000000  0.000000  0.086954      2.000000
 -0.014492 -0.014492  0.101446      2.000000
 -0.028985 -0.028985  0.115938      2.000000
 -0.043477 -0.043477  0.130431      2.000000
  0.115938  0.115938 -0.028985      2.000000
  0.101446  0.101446 -0.014492      2.000000
  0.086954  0.086954  0.000000      2.000000
  0.072461  0.072461  0.014492      2.000000
  0.057969  0.057969  0.028985      2.000000
  0.057969  0.057969  0.057969      2.000000
  0.043477  0.043477  0.072461      2.000000
  0.028985  0.028985  0.086954      2.000000
  0.014492  0.014492  0.101446      2.000000
  0.000000  0.000000  0.115938      2.000000
 -0.014492 -0.014492  0.130431      2.000000
 -0.028985 -0.028985  0.144923      2.000000
  0.130431  0.130431 -0.014492      2.000000
  0.115938  0.115938  0.000000      2.000000
  0.101446  0.101446  0.014492      2.000000
  0.086954  0.086954  0.028985      2.000000
  0.072461  0.072461  0.043477      2.000000
  0.072461  0.072461  0.072461      2.000000
  0.057969  0.057969  0.086954      2.000000
  0.043477  0.043477  0.101446      2.000000
  0.028985  0.028985  0.115938      2.000000
  0.014492  0.014492  0.130431      2.000000
[...]
 -0.115938  0.057969 -0.000000      4.000000
 -0.130431  0.043477  0.014492      4.000000
 -0.144923  0.028985  0.028985      4.000000
  0.014492  0.188400 -0.130431      4.000000
  0.000000  0.173908 -0.115938      4.000000
 -0.014492  0.159415 -0.101446      4.000000
 -0.028985  0.144923 -0.086954      4.000000
 -0.043477  0.130431 -0.072461      4.000000
 -0.043477  0.130431 -0.043477      4.000000
 -0.057969  0.115938 -0.028985      4.000000
 -0.072461  0.101446 -0.014492      4.000000
 -0.086954  0.086954  0.000000      2.000000
  0.028985  0.202892 -0.115938      4.000000
  0.014492  0.188400 -0.101446      4.000000
 -0.000000  0.173908 -0.086954      2.000000

 Subroutine IBZKPT_HF returns following result:

 Found   1728 k-points in 1st BZ
 the following   1728 k-points will be used (e.g. in the exchange kernel)
 Following reciprocal coordinates:   # in IRBZ
  0.000000  0.000000  0.000000    0.00057870   1 t-inv F
  0.083333  0.000000  0.000000    0.00057870   2 t-inv F
  0.166667  0.000000  0.000000    0.00057870   3 t-inv F
  0.250000  0.000000 -0.000000    0.00057870   4 t-inv F
  0.333333  0.000000  0.000000    0.00057870   5 t-inv F
  0.416667 -0.000000 -0.000000    0.00057870   6 t-inv F
  0.500000  0.000000 -0.000000    0.00057870   7 t-inv F
  0.000000  0.083333 -0.000000    0.00057870   8 t-inv F
  0.083333  0.083333  0.000000    0.00057870   9 t-inv F
  0.166667  0.083333 -0.000000    0.00057870  10 t-inv F
  0.250000  0.083333  0.000000    0.00057870  11 t-inv F
  0.333333  0.083333 -0.000000    0.00057870  12 t-inv F
  0.416667  0.083333  0.000000    0.00057870  13 t-inv F
  0.500000  0.083333 -0.000000    0.00057870  14 t-inv F
 -0.416667  0.083333  0.000000    0.00057870  15 t-inv F
 -0.333333  0.083333 -0.000000    0.00057870  16 t-inv F
 -0.250000  0.083333  0.000000    0.00057870  17 t-inv F
 -0.166667  0.083333  0.000000    0.00057870  18 t-inv F
 -0.083333  0.083333 -0.000000    0.00057870  19 t-inv F
 -0.000000  0.166667  0.000000    0.00057870  20 t-inv F
  0.083333  0.166667  0.000000    0.00057870  21 t-inv F
  0.166667  0.166667  0.000000    0.00057870  22 t-inv F
  0.250000  0.166667  0.000000    0.00057870  23 t-inv F
  0.333333  0.166667  0.000000    0.00057870  24 t-inv F
  0.416667  0.166667 -0.000000    0.00057870  25 t-inv F
[...]
      8       3.4679      2.00000
      9       3.4679      2.00000
     10       3.6103      0.00000
     11       7.1788      0.00000
     12       7.1788      0.00000
     13       7.1788      0.00000
     14      10.8993      0.00000
     15      13.4637      0.00000
     16      13.4637      0.00000

[...]

 soft charge-density along one line, spin component           1
         0         1         2         3         4         5         6         7         8         9
 total charge-density along one line

------------------------ aborting loop because EDIFF is reached ----------------------------------------

  FORCE on cell =-STRESS in cart. coord.  units (eV):
  Direction    XX          YY          ZZ          XY          YZ          ZX
  Alpha Z    57.30387    57.30387    57.30387
  Ewald    -414.74887  -414.74887  -414.74887     0.00009     0.00003     0.00003
  Hartree   244.71411   244.71411   244.71411     0.00003     0.00001     0.00001
  E(xc)     -97.33448   -97.33448   -97.33448    -0.00001     0.00001    -0.00001
  Local     -68.33124   -68.33124   -68.33124    -0.00021     0.00008    -0.00016
  n-local    46.89835    47.04581    46.97208    -0.00001     0.01054    -0.01054
  augment   121.08117   121.08117   121.08117     0.00009    -0.00009     0.00009
  Kinetic   109.85705   110.85097   110.35401    -0.00000     0.48605    -0.48606
  Fock        0.00000     0.00000     0.00000     0.00000     0.00000     0.00000
  Total       0.01065     0.01065     0.01065    -0.00001     0.00000     0.00000
  in kB       0.35906     0.35906     0.35907    -0.00048     0.00002     0.00002

 VOLUME and BASIS-vectors are now :
  energy-cutoff  :      520.00
  volume of cell :       47.53
      direct lattice vectors                 reciprocal lattice vectors
    -2.875090829  0.000000000  2.875090829    -0.173907549 -0.173907549  0.173907549
     0.000000000  2.875090829  2.875090829     0.173907549  0.173907549  0.173907549
    -2.875090829  2.875090829  0.000000000    -0.173907549  0.173907549 -0.173907549

  length of vectors
     4.065992443  4.065992443  4.065992443     0.301216711  0.301216711  0.301216711

 FORCES acting on ions
    electron-ion (+dipol)            ewald-force                    non-local-force                 convergence-correction
   -.103E-04 -.636E-05 -.141E-04   0.911E-05 0.911E-05 0.273E-04   -.245E-06 -.245E-06 -.610E-05   0.294E-06 0.292E-06 -.473E-05
   0.862E-05 0.876E-05 0.246E-04   -.911E-05 -.911E-05 -.273E-04   -.382E-06 -.382E-06 0.945E-07   -.188E-06 -.188E-06 0.493E-06
   -.163E-05 0.240E-05 0.105E-04   -.174E-14 -.312E-15 0.661E-15   -.626E-06 -.626E-06 -.600E-05   0.105E-06 0.104E-06 -.423E-05

 POSITION                                       TOTAL-FORCE (eV/Angst)
      0.00000      0.00000      0.00000         0.000001      0.000001      0.000002
     -1.43755      1.43755      1.43755        -0.000001     -0.000001     -0.000002
    total drift:                               -0.000002      0.000002      0.000000

  FREE ENERGIE OF THE ION-ELECTRON SYSTEM (eV)
  free  energy   TOTEN  =        -8.27348358 eV

  energy  without entropy=       -8.27348358  energy(sigma->0) =       -8.27348358

 Found     4 degrees of freedom:

     directions for atom     1:  z
     directions for atom     2:  z
 Linear response reoptimize wavefunctions
 Linear response to external field (no local field effect), progress :
  Direction:   1
  LATTYP: Found a face centered cubic cell.
 ALAT       =     5.7501816576

[...]

The dynamic configuration has the point symmetry C_1 .

[...]

----------------------------------------- Iteration    1(   1)  ---------------------------------------

 Free energy of the ion-electron system (eV)
  -Hartree energ DENC   =         0.00000000
  -V(xc)+E(xc)   XCENC  =         0.00000000
  PAW double counting   =         0.00000000        0.00000000
  entropy T*S    EENTRO =         0.00000000
  eigenvalues    EBANDS =        -0.23257247
  free energy    TOTEN  =        -0.23257247 eV

  energy without entropy =       -0.23257247

[...]

 change of polarisation eV/A/(eV/A) component  1 :     3.955    -0.027    -0.347
 dielectric tensor                  component  1 :    16.057    -0.103    -1.321

 Linear response to external field (no local field effect), progress :
  Direction:   2
  LATTYP: Found a face centered cubic cell.
 ALAT       =     5.7501816576

[...]

 Linear response to external field (no local field effect), progress :
  Direction:   3
  LATTYP: Found a face centered cubic cell.
 ALAT       =     5.7501816576

[...]

 HEAD OF MICROSCOPIC STATIC DIELECTRIC TENSOR (INDEPENDENT PARTICLE, excluding Hartree and local field effects)
          17.337362    -0.102549    -0.000072
          -0.102549    17.337362    -0.000072
           0.000068     0.000068    17.291902

 Linear response to external field, progress :
  Direction:   1
  LATTYP: Found a face centered cubic cell.
 ALAT       =     5.7501816576

[...]

 PIEZOELECTRIC TENSOR FIELD DIRECTION 1  (e Angst)
     0.00662  0.00970  0.00564           ( -0.00020  0.00015  0.00012)
     0.00969  0.00972  2.74715           (  0.00015 -0.00015  0.01491)
     0.00564  2.74715  0.00690           (  0.00012  0.01491 -0.00018)

 PIEZOELECTRIC TENSOR FIELD DIRECTION 1  (C/m^2)
     0.00223  0.00327  0.00190
     0.00327  0.00327  0.92599
     0.00190  0.92599  0.00233

      POSITION         DIRECTION 1           BORN EFFECTIVE CHARGE    (rigid.aug.   ionic)
      0.00000      0.00000      0.00000     2.21610  0.00281  0.00285 ( -8.43309 13.00000)
     -1.43755      1.43755      1.43755    -2.21554 -0.00383 -0.00493 (  0.78938  5.00000)
    total drift (improves with k-points):   0.00056 -0.00101 -0.00208

[...]

 Linear response to external field, progress :
  Direction:   3
  LATTYP: Found a face centered cubic cell.
 ALAT       =     5.7501816576

[...]

 change of polarisation eV/A/(eV/A) component  3 :    -0.343     0.343     4.143
 dielectric tensor                  component  3 :    -1.305     1.305    16.770

 PIEZOELECTRIC TENSOR FIELD DIRECTION 3  (e Angst)
    -0.01702  2.74435  0.00166           (  0.00034  0.00758  0.00000)
     2.74435 -0.01702  0.00166           (  0.00758  0.00034  0.00000)
     0.00166  0.00166 -0.01665           (  0.00000  0.00000  0.00034)

 PIEZOELECTRIC TENSOR FIELD DIRECTION 3  (C/m^2)
    -0.00574  0.92505  0.00056
     0.92505 -0.00574  0.00056
     0.00056  0.00056 -0.00561

      POSITION         DIRECTION 3           BORN EFFECTIVE CHARGE    (rigid.aug.   ionic)
      0.00000      0.00000      0.00000    -0.00007 -0.00007  2.21865 ( -8.43309 13.00000)
     -1.43755      1.43755      1.43755     0.00011  0.00011 -2.21889 (  0.78938  5.00000)
    total drift (improves with k-points):   0.00004  0.00004 -0.00024

[...]

 MACROSCOPIC STATIC DIELECTRIC TENSOR (including local field effects in DFT)
          16.815114    -0.101712    -0.000058
          -0.101712    16.815114    -0.000058
           0.000017     0.000017    16.770487

 Linear response:
   Degrees of freedom DOF   =            4
 Linear response progress:
  Degree of freedom:   1/  4
  LATTYP: Found a face centered cubic cell.
 ALAT       =     5.7501816576

[...]

 INTERNAL STRAIN TENSOR  FOR ION    1  DIRECTION 1   (eV/Angst):
     0.00491 -0.03579  0.27040
     0.03467 -0.00252 -5.90000
    -0.27899 -6.04378 -0.00364

 POSITION                   FORCE-CONSTANT FOR ION    1 DIRECTION 1 (eV/Angst/Angst)
      0.00000      0.00000      0.00000        -8.427664     -0.000512     -0.000285
     -1.43755      1.43755      1.43755         8.427664      0.000512      0.000285
    total drift:                                0.000000     -0.000000      0.000000

 BORN EFFECTIVE CHARGE FOR ION    1 DIRECTION 1 :   2.216   0.003  -0.000
                   rigid augmentation           :  -8.433  -0.000   0.000
                   ionic contribution           :  13.000  -0.000   0.000
                   Berry contribution           :  -2.350   0.003  -0.000

 Linear response progress:
  Degree of freedom:   2/  4
  LATTYP: Found a face centered cubic cell.
 ALAT       =     5.7501816576

[...]

The dynamic configuration has the point symmetry C_1 .

[...]

 Linear response progress:
  Degree of freedom:   4/  4
  LATTYP: Found a face centered cubic cell.
 ALAT       =     5.7501816576

[...]

----------------------------------------- Iteration    9(  10)  ---------------------------------------

 Broyden mixing:
  rms(total) = 0.12886E-04    rms(broyden)= 0.12886E-04
  rms(prec ) = 0.30636E-04
  weight for this iteration     100.00

 eigenvalues of (default mixing * dielectric matrix)
  average eigenvalue GAMMA=   1.9235
  3.1561  2.7893  2.3332  2.3332  1.8184  0.9892  0.9892  0.9795

 Free energy of the ion-electron system (eV)
  -Hartree energ DENC   =        -0.01908682
  -V(xc)+E(xc)   XCENC  =         0.00009920
  PAW double counting   =         0.00093800       -0.00093987
  entropy T*S    EENTRO =        -0.00000000
  eigenvalues    EBANDS =        -0.02474655
  free energy    TOTEN  =        -0.04373604 eV

  energy without entropy =       -0.04373604

[...]

 k-point 476 :      -0.2500    0.2500    0.5000
  band No.  band energies     occupation
      1      -0.0001      0.00000
      2      -0.0001      0.00000
      3      -0.0001      0.00000
      4      -0.0001      0.00000
      5      -0.0001      0.00000
      6       0.0002      0.00000
      7       0.0001      0.00000
      8       0.0001      0.00000
      9       0.0001      0.00000
     10       0.0001      0.00000
     11       0.0001      0.00000
     12       0.0000      0.00000
     13       0.0001      0.00000
     14       0.0001      0.00000
     15       0.0001      0.00000
     16       0.0001      0.00000

------------------------ aborting loop because EDIFF is reached ----------------------------------------

 INTERNAL STRAIN TENSOR  FOR ION    2  DIRECTION 3   (eV/Angst):
     0.00252  6.05316  0.05670
     6.05316  0.00252  0.05670
    -0.03865 -0.03865 -0.00310

 POSITION                   FORCE-CONSTANT FOR ION    2 DIRECTION 3 (eV/Angst/Angst)
      0.00000      0.00000      0.00000         0.000159      0.000159      8.470959
     -1.43755      1.43755      1.43755        -0.000159     -0.000159     -8.470959
    total drift:                                0.000000      0.000000      0.000000

 BORN EFFECTIVE CHARGE FOR ION    2 DIRECTION 3 :  -0.000  -0.000  -2.220
                   rigid augmentation           :   0.000  -0.000   0.789
                   ionic contribution           :   0.000  -0.000   5.000
                   Berry contribution           :  -0.000  -0.000  -8.009

  LATTYP: Found a face centered cubic cell.
 ALAT       =     5.7501816576

  Lattice vectors:

 A1 = (  -2.8750908288,   0.0000000000,   2.8750908288)
 A2 = (   0.0000000000,   2.8750908288,   2.8750908288)
 A3 = (  -2.8750908288,   2.8750908288,   0.0000000000)

Analysis of symmetry for initial positions (statically):
 Subroutine PRICEL returns:
 Original cell was already a primitive cell.

[...]

The static configuration has the point symmetry C_1h.

Analysis of symmetry for dynamics (positions and initial velocities):
 Subroutine PRICEL returns:
 Original cell was already a primitive cell.

 Routine SETGRP: Setting up the symmetry group for a
 face centered cubic supercell.

 Subroutine GETGRP returns: Found  2 space group operations
 (whereof  2 operations were pure point group operations)
 out of a pool of 48 trial point group operations.

The dynamic configuration has the point symmetry C_1h.

 Subroutine INISYM returns: Found  2 space group operations
 (whereof  2 operations are pure point group operations),
 and found     1 'primitive' translations

 MACROSCOPIC STATIC DIELECTRIC TENSOR (including local field effects in DFT)
          16.815114    -0.101712    -0.000058
          -0.101712    16.815114    -0.000058
           0.000017     0.000017    16.770487

 PIEZOELECTRIC TENSOR  for field in x, y, z        (e  Angst)
          XX          YY          ZZ          XY          YZ          ZX
  x     0.00662     0.00972     0.00690     0.00969     2.74715     0.00564
  y    -0.00642    -0.01076    -0.00602    -0.00928     0.00602     2.74717
  z    -0.01702    -0.01702    -0.01665     2.74435     0.00166     0.00166

 PIEZOELECTRIC TENSOR  for field in x, y, z        (C/m^2)
          XX          YY          ZZ          XY          YZ          ZX
  x    -0.00070     0.00055     0.00015     0.00007     0.92600     0.00197
  y     0.00055    -0.00070     0.00015     0.00007     0.00197     0.92600
  z    -0.00574    -0.00574    -0.00561     0.92505     0.00056     0.00056

 BORN EFFECTIVE CHARGES (in e, cummulative output)
 ion    1
    1     2.21582     0.00332     0.00389
    2     0.00331     2.21582    -0.00387
    3    -0.00009    -0.00009     2.21877
 ion    2
    1    -2.21582    -0.00332    -0.00389
    2    -0.00331    -2.21582     0.00387
    3     0.00009     0.00009    -2.21877

 INTERNAL STRAIN TENSOR FOR ION    1 for displacements in x,y,z  (eV/Angst):
          X           Y           Z          XY          YZ          ZX
  x     0.00491    -0.00252    -0.00364     0.03467    -6.04378     0.27040
  y    -0.00252     0.00491    -0.00364    -0.03579    -0.27899    -5.90000
  z    -0.00152    -0.00152     0.00456    -6.00187     0.02646    -0.04905

 INTERNAL STRAIN TENSOR FOR ION    2 for displacements in x,y,z  (eV/Angst):
          X           Y           Z          XY          YZ          ZX
  x    -0.00329    -0.00104     0.00239    -0.04530     6.12346    -0.35663
  y    -0.00104    -0.00329     0.00239     0.04575     0.36193     5.93807
  z     0.00252     0.00252    -0.00310     6.05316    -0.03865     0.05670

 SECOND DERIVATIVES (NOT SYMMETRIZED)
               1X          1Y          1Z          2X          2Y          2Z
  1X    -8.427664   -0.000512   -0.000285    8.427664    0.000512    0.000285
  1Y    -0.000512   -8.427664   -0.000285    0.000512    8.427664    0.000285
  1Z     0.000160    0.000160   -8.427654   -0.000160   -0.000160    8.427654
  2X     8.470748   -0.000037    0.000203   -8.470748    0.000037   -0.000203
  2Y    -0.000037    8.470748    0.000203    0.000037   -8.470748   -0.000203
  2Z     0.000159    0.000159    8.470959   -0.000159   -0.000159   -8.470959

 Eigenvectors and eigenvalues of the dynamical matrix

   1 f  =    7.561489 THz    47.510234 2PiTHz  252.224101 cm-1    31.271814 meV
             X         Y         Z           dx          dy          dz
      0.000000  0.000000  0.000000     0.426041    0.426041    0.392022
     -1.437545  1.437546  1.437546    -0.412028   -0.412028   -0.379161

[...]

   3 f  =    7.561218 THz    47.508536 2PiTHz  252.215086 cm-1    31.270697 meV
             X         Y         Z           dx          dy          dz
      0.000000  0.000000  0.000000     0.508273   -0.508273    0.000000
     -1.437545  1.437546  1.437546    -0.491588    0.491588   -0.000000

   4 f/i=    0.009503 THz     0.059710 2PiTHz    0.316992 cm-1     0.039302 meV
             X         Y         Z           dx          dy          dz
      0.000000  0.000000  0.000000     0.481694    0.481694   -0.138658
     -1.437545  1.437546  1.437546     0.498078    0.498078   -0.143362

[...]

   6 f/i=    0.009757 THz     0.061303 2PiTHz    0.325449 cm-1     0.040350 meV
             X         Y         Z           dx          dy          dz
      0.000000  0.000000  0.000000     0.491588   -0.491588    0.000000
     -1.437545  1.437546  1.437546     0.508273   -0.508273    0.000000

 MACROSCOPIC STATIC DIELECTRIC TENSOR IONIC CONTRIBUTION
           2.212249     0.006550     0.003769
           0.006550     2.212251    -0.003990
           0.003769    -0.003990     2.218104

 ELASTIC MODULI IONIC CONTR (kBar)
 Direction    XX          YY          ZZ          XY          YZ          ZX
 XX          -0.0001      0.0000      0.0001     -0.0494      0.0988     -0.0230
 YY           0.0000     -0.0001      0.0001     -0.0479     -0.0125      0.0973
 ZZ           0.0001      0.0001     -0.0001      0.0920     -0.0776     -0.0666
 XY          -0.0494     -0.0479      0.0920   -144.9518      1.7036     -2.2824
 YZ           0.0988     -0.0125     -0.0776      1.7036   -148.0660      0.0528
 ZX          -0.0230      0.0973     -0.0666     -2.2824      0.0528   -140.1739

 PIEZOELECTRIC TENSOR IONIC CONTR  for field in x, y, z        (C/m^2)
          XX          YY          ZZ          XY          YZ          ZX
  x     0.00036    -0.00007    -0.00027     0.00260    -0.53782     0.02694
  y    -0.00006     0.00036    -0.00027    -0.00266    -0.02913    -0.52318
  z    -0.00018    -0.00018     0.00034    -0.53353     0.00291    -0.00465