 vasp.5.4.4.18Apr17-6-g9f103f2a35 (build Aug 24 2017 11:22:49) complex

 executed on             LinuxIFC date 2023.12.25  13:07:20

 INCAR:
 POTCAR:    PAW_PBE Ba_sv 06Sep2000
 POTCAR:    PAW_PBE Se 06Sep2000

 POTCAR:    PAW_PBE Ba_sv 06Sep2000
   VRHFIN =Ba: 5s5p6s

   TITEL  = PAW_PBE Ba_sv 06Sep2000
   POMASS =  137.327; ZVAL   =   10.000    mass and valenz
   ENMAX  =  187.181; ENMIN  =  140.386 eV

 POTCAR:    PAW_PBE Se 06Sep2000
   VRHFIN =Se: s2p4

   TITEL  = PAW_PBE Se 06Sep2000
   POMASS =   78.960; ZVAL   =    6.000    mass and valenz
   ENMAX  =  211.555; ENMIN  =  158.666 eV

  PAW_PBE Ba_sv 06Sep2000               :
  PAW_PBE Se 06Sep2000                  :

 POSCAR: Ba1 Se1
  positions in direct lattice
 exchange correlation table for  LEXCH =        8
   RHO(1)=    0.500       N(1)  =     2000
   RHO(2)=  100.500       N(2)  =     4000

 ion  position               nearest neighbor table
   1  0.000  0.000  0.000-   2 3.33   2 3.33   2 3.33   2 3.33   2 3.33   2 3.33
   2  0.500  0.500  0.500-   1 3.33   1 3.33   1 3.33   1 3.33   1 3.33   1 3.33

  LATTYP: Found a face centered cubic cell.
 ALAT       =     6.6672432606

  Lattice vectors:

 A1 = (  -3.3336216303,   0.0000000000,   3.3336216303)
 A2 = (   0.0000000000,   3.3336216303,   3.3336216303)
 A3 = (  -3.3336216303,   3.3336216303,   0.0000000000)

Analysis of symmetry for initial positions (statically):
 Subroutine PRICEL returns:
 Original cell was already a primitive cell.

 Routine SETGRP: Setting up the symmetry group for a
 face centered cubic supercell.

 Subroutine GETGRP returns: Found  8 space group operations
 (whereof  8 operations were pure point group operations)
 out of a pool of 48 trial point group operations.

The static configuration has the point symmetry C_4v.

Analysis of symmetry for dynamics (positions and initial velocities):
 Subroutine PRICEL returns:
 Original cell was already a primitive cell.

[...]

The dynamic configuration has the point symmetry C_4v.

 Subroutine INISYM returns: Found  8 space group operations
 (whereof  8 operations are pure point group operations),
 and found     1 'primitive' translations

 KPOINTS: pymatgen with grid density = 3000 / numb

Automatic generation of k-mesh.
Space group operators:
 irot       det(A)        alpha          n_x          n_y          n_z        tau_x        tau_y        tau_z
    1     1.000000     0.000000     1.000000     0.000000     0.000000     0.000000     0.000000     0.000000
    2     1.000000    90.000000    -1.000000     0.000000     0.000000     0.000000     0.000000     0.000000
    3    -1.000000   180.000000    -0.000000    -0.000000     1.000000     0.000000     0.000000     0.000000
    4    -1.000000   180.000000     0.000000     0.707107     0.707107     0.000000     0.000000     0.000000
    5    -1.000000   180.000000     0.000000     1.000000     0.000000     0.000000     0.000000     0.000000
    6     1.000000    90.000000     1.000000     0.000000     0.000000     0.000000     0.000000     0.000000
    7     1.000000   180.000000     1.000000     0.000000     0.000000     0.000000     0.000000     0.000000
    8    -1.000000   180.000000    -0.000000    -0.707107     0.707107     0.000000     0.000000     0.000000

 Subroutine IBZKPT returns following result:

 Found    163 irreducible k-points:

 Following reciprocal coordinates:
            Coordinates               Weight
  0.000000  0.000000  0.000000      1.000000
  0.083333  0.000000  0.000000      8.000000
  0.166667 -0.000000 -0.000000      8.000000
  0.250000 -0.000000 -0.000000      8.000000
  0.333333  0.000000  0.000000      8.000000
  0.416667 -0.000000 -0.000000      8.000000
  0.500000 -0.000000 -0.000000      4.000000
  0.083333  0.083333  0.000000      4.000000
  0.166667  0.083333  0.000000     16.000000
  0.250000  0.083333 -0.000000     16.000000
  0.333333  0.083333  0.000000     16.000000
  0.416667  0.083333 -0.000000     16.000000
  0.500000  0.083333 -0.000000     16.000000
 -0.416667  0.083333  0.000000     16.000000
 -0.333333  0.083333  0.000000     16.000000
 -0.250000  0.083333  0.000000     16.000000
 -0.166667  0.083333  0.000000     16.000000
 -0.083333  0.083333  0.000000      8.000000
  0.166667  0.166667  0.000000      4.000000
  0.250000  0.166667  0.000000     16.000000
  0.333333  0.166667  0.000000     16.000000
  0.416667  0.166667 -0.000000     16.000000
  0.500000  0.166667 -0.000000     16.000000
 -0.416667  0.166667  0.000000     16.000000
 -0.333333  0.166667  0.000000     16.000000
 -0.250000  0.166667  0.000000     16.000000
 -0.166667  0.166667  0.000000      8.000000
  0.250000  0.250000  0.000000      4.000000
  0.333333  0.250000  0.000000     16.000000
  0.416667  0.250000  0.000000     16.000000
  0.500000  0.250000  0.000000     16.000000
 -0.416667  0.250000 -0.000000     16.000000
 -0.333333  0.250000 -0.000000     16.000000
 -0.250000  0.250000  0.000000      8.000000
  0.333333  0.333333  0.000000      4.000000
  0.416667  0.333333  0.000000     16.000000
  0.500000  0.333333  0.000000     16.000000
 -0.416667  0.333333  0.000000     16.000000
 -0.333333  0.333333  0.000000      8.000000
  0.416667  0.416667  0.000000      4.000000
  0.500000  0.416667  0.000000     16.000000
 -0.416667  0.416667  0.000000      8.000000
  0.500000  0.500000  0.000000      2.000000
  0.083333  0.000000  0.083333      2.000000
  0.166667  0.000000  0.083333      8.000000
  0.250000 -0.000000  0.083333      8.000000
  0.333333 -0.000000  0.083333      8.000000
  0.416667 -0.000000  0.083333      8.000000
  0.500000 -0.000000  0.083333      8.000000
 -0.416667  0.000000  0.083333      8.000000
 -0.333333  0.000000  0.083333      8.000000
 -0.250000 -0.000000  0.083333      8.000000
 -0.166667  0.000000  0.083333      8.000000
 -0.083333  0.000000  0.083333      4.000000
  0.250000  0.166667  0.083333      8.000000
  0.333333  0.166667  0.083333     16.000000
  0.416667  0.166667  0.083333     16.000000
  0.500000  0.166667  0.083333     16.000000
 -0.416667  0.166667  0.083333      8.000000
  0.166667  0.250000  0.083333      8.000000
[...]
  0.333333 -0.083333  0.250000      8.000000
  0.333333  0.000000  0.333333      2.000000
  0.416667  0.000000  0.333333      8.000000
  0.500000  0.000000  0.333333      8.000000
 -0.416667  0.000000  0.333333      8.000000
 -0.333333 -0.000000  0.333333      4.000000
  0.416667 -0.250000  0.333333      8.000000
  0.416667 -0.166667  0.333333     16.000000
  0.500000 -0.166667  0.333333      4.000000
  0.416667 -0.083333  0.333333      8.000000
  0.416667  0.000000  0.416667      2.000000
  0.500000  0.000000  0.416667      8.000000
 -0.416667  0.000000  0.416667      4.000000
  0.500000 -0.083333  0.416667      4.000000
  0.500000  0.000000  0.500000      1.000000

 Following cartesian coordinates:
            Coordinates               Weight
  0.000000  0.000000  0.000000      1.000000
 -0.012499 -0.012499  0.012499      8.000000
 -0.024998 -0.024998  0.024998      8.000000
 -0.037497 -0.037497  0.037497      8.000000
 -0.049996 -0.049996  0.049996      8.000000
 -0.062495 -0.062495  0.062495      8.000000
 -0.074994 -0.074994  0.074994      4.000000
  0.000000  0.000000  0.024998      4.000000
 -0.012499 -0.012499  0.037497     16.000000
 -0.024998 -0.024998  0.049996     16.000000
 -0.037497 -0.037497  0.062495     16.000000
 -0.049996 -0.049996  0.074994     16.000000
 -0.062495 -0.062495  0.087492     16.000000
  0.074994  0.074994 -0.049996     16.000000
  0.062495  0.062495 -0.037497     16.000000
  0.049996  0.049996 -0.024998     16.000000
  0.037497  0.037497 -0.012499     16.000000
  0.024998  0.024998  0.000000      8.000000
  0.000000  0.000000  0.049996      4.000000
 -0.012499 -0.012499  0.062495     16.000000
 -0.024998 -0.024998  0.074994     16.000000
 -0.037497 -0.037497  0.087492     16.000000
 -0.049996 -0.049996  0.099991     16.000000
  0.087492  0.087492 -0.037497     16.000000
  0.074994  0.074994 -0.024998     16.000000
  0.062495  0.062495 -0.012499     16.000000
  0.049996  0.049996  0.000000      8.000000
  0.000000  0.000000  0.074994      4.000000
 -0.012499 -0.012499  0.087492     16.000000
 -0.024998 -0.024998  0.099991     16.000000
 -0.037497 -0.037497  0.112490     16.000000
  0.099991  0.099991 -0.024998     16.000000
  0.087492  0.087492 -0.012499     16.000000
  0.074994  0.074994  0.000000      8.000000
  0.000000  0.000000  0.099991      4.000000
 -0.012499 -0.012499  0.112490     16.000000
 -0.024998 -0.024998  0.124989     16.000000
  0.112490  0.112490 -0.012499     16.000000
  0.099991  0.099991  0.000000      8.000000
  0.000000  0.000000  0.124989      4.000000
 -0.012499 -0.012499  0.137488     16.000000
  0.124989  0.124989  0.000000      8.000000
  0.000000  0.000000  0.149987      2.000000
 -0.024998  0.000000  0.000000      2.000000
 -0.037497 -0.012499  0.012499      8.000000
 -0.049996 -0.024998  0.024998      8.000000
 -0.062495 -0.037497  0.037497      8.000000
 -0.074994 -0.049996  0.049996      8.000000
 -0.087492 -0.062495  0.062495      8.000000
  0.049996  0.074994 -0.074994      8.000000
  0.037497  0.062495 -0.062495      8.000000
  0.024998  0.049996 -0.049996      8.000000
  0.012499  0.037497 -0.037497      8.000000
  0.000000  0.024998 -0.024998      4.000000
 -0.024998  0.000000  0.049996      8.000000
 -0.037497 -0.012499  0.062495     16.000000
 -0.049996 -0.024998  0.074994     16.000000
 -0.062495 -0.037497  0.087492     16.000000
  0.074994  0.099991 -0.049996      8.000000
 -0.000000  0.024998  0.049996      8.000000
[...]
 -0.099991 -0.024998  0.000000      8.000000
 -0.099991  0.000000  0.000000      2.000000
 -0.112490 -0.012499  0.012499      8.000000
 -0.124989 -0.024998  0.024998      8.000000
  0.012499  0.112490 -0.112490      8.000000
 -0.000000  0.099991 -0.099991      4.000000
 -0.149987 -0.049996 -0.024998      8.000000
 -0.137488 -0.037497 -0.012499     16.000000
 -0.149987 -0.049996  0.000000      4.000000
 -0.124989 -0.024998  0.000000      8.000000
 -0.124989  0.000000  0.000000      2.000000
 -0.137488 -0.012499  0.012499      8.000000
  0.000000  0.124989 -0.124989      4.000000
 -0.149987 -0.024998  0.000000      4.000000
 -0.149987  0.000000  0.000000      1.000000

 Subroutine IBZKPT_HF returns following result:

 Found   1728 k-points in 1st BZ
 the following   1728 k-points will be used (e.g. in the exchange kernel)
 Following reciprocal coordinates:   # in IRBZ
  0.000000  0.000000  0.000000    0.00057870   1 t-inv F
  0.083333  0.000000  0.000000    0.00057870   2 t-inv F
  0.166667 -0.000000 -0.000000    0.00057870   3 t-inv F
  0.250000 -0.000000 -0.000000    0.00057870   4 t-inv F
  0.333333  0.000000  0.000000    0.00057870   5 t-inv F
  0.416667 -0.000000 -0.000000    0.00057870   6 t-inv F
  0.500000 -0.000000 -0.000000    0.00057870   7 t-inv F
  0.083333  0.083333  0.000000    0.00057870   8 t-inv F
  0.166667  0.083333  0.000000    0.00057870   9 t-inv F
  0.250000  0.083333 -0.000000    0.00057870  10 t-inv F
  0.333333  0.083333  0.000000    0.00057870  11 t-inv F
  0.416667  0.083333 -0.000000    0.00057870  12 t-inv F
[...]
      8       1.0892      2.00000
      9       4.0053      0.00000
     10       4.6135      0.00000
     11       4.6135      0.00000
     12       4.6135      0.00000
     13       5.4196      0.00000
     14       5.4196      0.00000
     15       9.1174      0.00000
     16      14.9722      0.00000

[...]

 soft charge-density along one line, spin component           1
         0         1         2         3         4         5         6         7         8         9
 total charge-density along one line

------------------------ aborting loop because EDIFF is reached ----------------------------------------

  FORCE on cell =-STRESS in cart. coord.  units (eV):
  Direction    XX          YY          ZZ          XY          YZ          ZX
  Alpha Z    69.21955    69.21955    69.21955
  Ewald    -271.52389  -271.52389  -271.52389    -0.00000     0.00000     0.00000
  Hartree    42.91152    42.91152    42.91152    -0.00000     0.00000    -0.00000
  E(xc)     -55.79045   -55.79045   -55.79045    -0.00000     0.00000    -0.00000
  Local      11.95183    11.95183    11.95183    -0.00001     0.00001    -0.00001
  n-local     6.94008     6.75366     7.12649     0.39861    -0.05517    -0.14064
  augment   -12.84253   -12.84253   -12.84253     0.00001    -0.00001     0.00001
  Kinetic   209.27129   209.50732   209.03525    -5.05391     0.73858     1.86231
  Fock        0.00000     0.00000     0.00000     0.00000     0.00000     0.00000
  Total       0.13739     0.13739     0.13739     0.00000     0.00000     0.00000
  in kB       2.97091     2.97091     2.97091     0.00000     0.00000     0.00000

 VOLUME and BASIS-vectors are now :
  energy-cutoff  :      520.00
  volume of cell :       74.09
      direct lattice vectors                 reciprocal lattice vectors
    -3.333621630  0.000000000  3.333621630    -0.149987028 -0.149987028  0.149987028
     0.000000000  3.333621630  3.333621630     0.149987028  0.149987028  0.149987028
    -3.333621630  3.333621630  0.000000000    -0.149987028  0.149987028 -0.149987028

  length of vectors
     4.714452921  4.714452921  4.714452921     0.259785153  0.259785153  0.259785153

 FORCES acting on ions
    electron-ion (+dipol)            ewald-force                    non-local-force                 convergence-correction
   -.129E-04 -.590E-14 0.158E-14   0.125E-04 -.417E-14 -.305E-14   0.878E-06 0.190E-23 0.130E-22   -.795E-07 -.126E-13 -.753E-14
   0.134E-04 0.296E-12 0.238E-12   -.125E-04 0.399E-14 0.445E-14   -.955E-06 0.873E-23 -.658E-23   -.472E-06 -.158E-11 -.159E-11
   0.558E-06 0.290E-12 0.240E-12   0.101E-14 -.177E-15 0.140E-14   -.769E-07 0.106E-22 0.638E-23   -.551E-06 -.159E-11 -.160E-11

 POSITION                                       TOTAL-FORCE (eV/Angst)
      0.00000      0.00000      0.00000         0.000000      0.000000      0.000000
     -3.33362      3.33362      3.33362        -0.000000     -0.000000     -0.000000
    total drift:                               -0.000000     -0.000000     -0.000000

  FREE ENERGIE OF THE ION-ELECTRON SYSTEM (eV)
  free  energy   TOTEN  =        -9.50407847 eV

  energy  without entropy=       -9.50407847  energy(sigma->0) =       -9.50407847

 Found     4 degrees of freedom:

     directions for atom     1:  y
     directions for atom     2:  y
 Linear response reoptimize wavefunctions
 Linear response to external field (no local field effect), progress :
  Direction:   1
  LATTYP: Found a face centered cubic cell.
 ALAT       =     6.6672432606

[...]

----------------------------------------- Iteration    1(   1)  ---------------------------------------

 Free energy of the ion-electron system (eV)
  -Hartree energ DENC   =         0.00000000
  -V(xc)+E(xc)   XCENC  =         0.00000000
  PAW double counting   =         0.00000000        0.00000000
  entropy T*S    EENTRO =         0.00000000
  eigenvalues    EBANDS =        -0.94548444
  free energy    TOTEN  =        -0.94548444 eV

  energy without entropy =       -0.94548444

[...]

 change of polarisation eV/A/(eV/A) component  1 :     1.949    -0.294     0.059
 dielectric tensor                  component  1 :     5.760    -0.719     0.144

 Linear response to external field (no local field effect), progress :
  Direction:   2
  LATTYP: Found a face centered cubic cell.
 ALAT       =     6.6672432606

[...]

The dynamic configuration has the point symmetry C_1h.

[...]

 Linear response to external field (no local field effect), progress :
  Direction:   3
  LATTYP: Found a face centered cubic cell.
 ALAT       =     6.6672432606

[...]

 HEAD OF MICROSCOPIC STATIC DIELECTRIC TENSOR (INDEPENDENT PARTICLE, excluding Hartree and local field effects)
           5.760040     0.000000    -0.000000
           0.000000     5.760579     0.000000
          -0.000000     0.000000     5.760579

 Linear response to external field, progress :
  Direction:   1
  LATTYP: Found a face centered cubic cell.
 ALAT       =     6.6672432606

[...]

 PIEZOELECTRIC TENSOR FIELD DIRECTION 1  (e Angst)
     0.00017 -0.00000 -0.00000           (  0.00000  0.00000 -0.00000)
     0.00000  0.00008 -0.00000           (  0.00000  0.00000  0.00000)
    -0.00000  0.00000  0.00008           ( -0.00000  0.00000  0.00000)

 PIEZOELECTRIC TENSOR FIELD DIRECTION 1  (C/m^2)
     0.00004 -0.00000 -0.00000
     0.00000  0.00002 -0.00000
    -0.00000  0.00000  0.00002

      POSITION         DIRECTION 1           BORN EFFECTIVE CHARGE    (rigid.aug.   ionic)
      0.00000      0.00000      0.00000     2.59490  0.00000  0.00000 (  1.69538 10.00000)
     -3.33362      3.33362      3.33362    -2.59490  0.00000 -0.00000 (  1.11182  6.00000)
    total drift (improves with k-points):   0.00000  0.00000  0.00000

[...]

 Linear response to external field, progress :
  Direction:   3
  LATTYP: Found a face centered cubic cell.
 ALAT       =     6.6672432606

[...]

 change of polarisation eV/A/(eV/A) component  3 :    -0.000     0.006     1.767
 dielectric tensor                  component  3 :    -0.000     0.014     5.315

 PIEZOELECTRIC TENSOR FIELD DIRECTION 3  (e Angst)
     0.00001  0.00000 -0.00017           ( -0.00000  0.00000  0.00000)
     0.00000 -0.00002  0.00000           (  0.00000 -0.00000  0.00000)
    -0.00017  0.00000  0.00005           (  0.00000  0.00000 -0.00000)

 PIEZOELECTRIC TENSOR FIELD DIRECTION 3  (C/m^2)
     0.00000  0.00000 -0.00004
     0.00000 -0.00000  0.00000
    -0.00004  0.00000  0.00001

      POSITION         DIRECTION 3           BORN EFFECTIVE CHARGE    (rigid.aug.   ionic)
      0.00000      0.00000      0.00000     0.00002  0.00000  2.59505 (  1.69538 10.00000)
     -3.33362      3.33362      3.33362    -0.00001 -0.00000 -2.59521 (  1.11182  6.00000)
    total drift (improves with k-points):   0.00001 -0.00000 -0.00015

[...]

 MACROSCOPIC STATIC DIELECTRIC TENSOR (including local field effects in DFT)
           5.314691     0.000000    -0.000000
           0.000000     5.315298     0.000000
          -0.000000     0.000000     5.315298

 Linear response:
   Degrees of freedom DOF   =            4
 Linear response progress:
  Degree of freedom:   1/  4
  LATTYP: Found a face centered cubic cell.
 ALAT       =     6.6672432606

[...]

 INTERNAL STRAIN TENSOR  FOR ION    1  DIRECTION 1   (eV/Angst):
     0.00205 -0.00000  0.00000
    -0.00000 -0.00024  0.00000
     0.00000 -0.00000 -0.00024

 POSITION                   FORCE-CONSTANT FOR ION    1 DIRECTION 1 (eV/Angst/Angst)
      0.00000      0.00000      0.00000        -1.928352     -0.000000      0.000000
     -3.33362      3.33362      3.33362         1.928352      0.000000     -0.000000
    total drift:                                0.000000      0.000000      0.000000

 BORN EFFECTIVE CHARGE FOR ION    1 DIRECTION 1 :   2.595   0.000  -0.000
                   rigid augmentation           :   1.695   0.000  -0.000
                   ionic contribution           :  10.000   0.000  -0.000
                   Berry contribution           :  -9.101  -0.000   0.000

 Linear response progress:
  Degree of freedom:   2/  4
  LATTYP: Found a face centered cubic cell.
 ALAT       =     6.6672432606

[...]

 Linear response progress:
  Degree of freedom:   4/  4
  LATTYP: Found a face centered cubic cell.
 ALAT       =     6.6672432606

[...]

The dynamic configuration has the point symmetry C_1h.

[...]

----------------------------------------- Iteration    8(  10)  ---------------------------------------

 Broyden mixing:
  rms(total) = 0.26055E-04    rms(broyden)= 0.26055E-04
  rms(prec ) = 0.44226E-04
  weight for this iteration     100.00

 eigenvalues of (default mixing * dielectric matrix)
  average eigenvalue GAMMA=   1.9630
  3.2626  2.8031  2.5522  0.9775  0.9775  1.7993  1.7993  1.5322

 Free energy of the ion-electron system (eV)
  -Hartree energ DENC   =        -0.04566522
  -V(xc)+E(xc)   XCENC  =         0.00028372
  PAW double counting   =         0.00008043       -0.00008010
  entropy T*S    EENTRO =        -0.00000000
  eigenvalues    EBANDS =        -0.04351137
  free energy    TOTEN  =        -0.08889254 eV

  energy without entropy =       -0.08889254

[...]

 k-point 476 :       0.0000   -0.5000   -0.5000
  band No.  band energies     occupation
      1      -0.0001      0.00000
      2      -0.0001      0.00000
      3      -0.0001      0.00000
      4      -0.0001      0.00000
      5       0.0002      0.00000
      6       0.0001      0.00000
      7       0.0002      0.00000
      8       0.0002      0.00000
      9       0.0000      0.00000
     10       0.0000      0.00000
     11      -0.0000      0.00000
     12      -0.0001      0.00000
     13      -0.0001      0.00000
     14      -0.0000      0.00000
     15       0.0001      0.00000
     16       0.0001      0.00000

------------------------ aborting loop because EDIFF is reached ----------------------------------------

 INTERNAL STRAIN TENSOR  FOR ION    2  DIRECTION 2   (eV/Angst):
     0.00044 -0.00140  0.00000
    -0.00140  0.00058  0.00000
     0.00000  0.00000  0.00004

 POSITION                   FORCE-CONSTANT FOR ION    2 DIRECTION 2 (eV/Angst/Angst)
      0.00000      0.00000      0.00000        -0.000002      1.922611     -0.000000
     -3.33362      3.33362      3.33362         0.000002     -1.922611      0.000000
    total drift:                                0.000000      0.000000      0.000000

 BORN EFFECTIVE CHARGE FOR ION    2 DIRECTION 2 :  -0.000  -2.595  -0.000
                   rigid augmentation           :   0.000   1.112   0.000
                   ionic contribution           :   0.000   6.000   0.000
                   Berry contribution           :  -0.000  -9.707  -0.000

  LATTYP: Found a face centered cubic cell.
 ALAT       =     6.6672432606

  Lattice vectors:

 A1 = (  -3.3336216303,   0.0000000000,   3.3336216303)
 A2 = (   0.0000000000,   3.3336216303,   3.3336216303)
 A3 = (  -3.3336216303,   3.3336216303,   0.0000000000)

Analysis of symmetry for initial positions (statically):
 Subroutine PRICEL returns:
 Original cell was already a primitive cell.

[...]

The static configuration has the point symmetry C_4v.

Analysis of symmetry for dynamics (positions and initial velocities):
 Subroutine PRICEL returns:
 Original cell was already a primitive cell.

 Routine SETGRP: Setting up the symmetry group for a
 face centered cubic supercell.

 Subroutine GETGRP returns: Found  8 space group operations
 (whereof  8 operations were pure point group operations)
 out of a pool of 48 trial point group operations.

The dynamic configuration has the point symmetry C_4v.

 Subroutine INISYM returns: Found  8 space group operations
 (whereof  8 operations are pure point group operations),
 and found     1 'primitive' translations

 MACROSCOPIC STATIC DIELECTRIC TENSOR (including local field effects in DFT)
           5.314691     0.000000    -0.000000
           0.000000     5.315298     0.000000
          -0.000000     0.000000     5.315298

 PIEZOELECTRIC TENSOR  for field in x, y, z        (e  Angst)
          XX          YY          ZZ          XY          YZ          ZX
  x     0.00017     0.00008     0.00008     0.00000     0.00000    -0.00000
  y    -0.00004     0.00010    -0.00013     0.00054     0.00000     0.00000
  z     0.00001    -0.00002     0.00005     0.00000     0.00000    -0.00017

 PIEZOELECTRIC TENSOR  for field in x, y, z        (C/m^2)
          XX          YY          ZZ          XY          YZ          ZX
  x     0.00004     0.00002     0.00002     0.00000     0.00000    -0.00000
  y     0.00000     0.00000     0.00000     0.00004    -0.00000     0.00000
  z    -0.00000     0.00000     0.00000     0.00000     0.00000     0.00004

 BORN EFFECTIVE CHARGES (in e, cummulative output)
 ion    1
    1     2.59490     0.00000     0.00000
    2    -0.00007     2.59524     0.00000
    3     0.00002     0.00000     2.59513
 ion    2
    1    -2.59490    -0.00000    -0.00000
    2     0.00007    -2.59524    -0.00000
    3    -0.00002    -0.00000    -2.59513

 INTERNAL STRAIN TENSOR FOR ION    1 for displacements in x,y,z  (eV/Angst):
          X           Y           Z          XY          YZ          ZX
  x     0.00205    -0.00024    -0.00024     0.00000    -0.00000    -0.00000
  y    -0.00000     0.00000     0.00000    -0.00126     0.00000    -0.00000
  z     0.00000    -0.00000     0.00000    -0.00000    -0.00000    -0.00126

 INTERNAL STRAIN TENSOR FOR ION    2 for displacements in x,y,z  (eV/Angst):
          X           Y           Z          XY          YZ          ZX
  x    -0.00140    -0.00013    -0.00013    -0.00000    -0.00000     0.00000
  y     0.00000     0.00000     0.00000    -0.00140     0.00000    -0.00000
  z    -0.00000     0.00000     0.00000    -0.00000    -0.00000    -0.00140

 SECOND DERIVATIVES (NOT SYMMETRIZED)
               1X          1Y          1Z          2X          2Y          2Z
  1X    -1.928352   -0.000000    0.000000    1.928352    0.000000   -0.000000
  1Y    -0.000000   -1.928685   -0.000000    0.000000    1.928685    0.000000
  1Z     0.000000   -0.000000   -1.928685   -0.000000    0.000000    1.928685
  2X     1.922864    0.000000   -0.000000   -1.922864   -0.000000    0.000000
  2Y     0.000000    1.922611    0.000000   -0.000000   -1.922611   -0.000000
  2Z    -0.000000    0.000000    1.922611    0.000000   -0.000000   -1.922611

 Eigenvectors and eigenvalues of the dynamical matrix

   1 f  =    3.063267 THz    19.247076 2PiTHz  102.179596 cm-1    12.668660 meV
             X         Y         Z           dx          dy          dz
      0.000000  0.000000  0.000000    -0.604757    0.000000   -0.000000
     -3.333621  3.333622  3.333622     0.796410   -0.000000   -0.000000

[...]

   3 f  =    3.063236 THz    19.246882 2PiTHz  102.178566 cm-1    12.668532 meV
             X         Y         Z           dx          dy          dz
      0.000000  0.000000  0.000000     0.000000   -0.000000   -0.604816
     -3.333621  3.333622  3.333622    -0.000000   -0.000000    0.796365

   4 f/i=    0.002103 THz     0.013211 2PiTHz    0.070137 cm-1     0.008696 meV
             X         Y         Z           dx          dy          dz
      0.000000  0.000000  0.000000     0.796410   -0.000000    0.000000
     -3.333621  3.333622  3.333622     0.604757   -0.000000    0.000000

[...]

   6 f/i=    0.002327 THz     0.014619 2PiTHz    0.077610 cm-1     0.009622 meV
             X         Y         Z           dx          dy          dz
      0.000000  0.000000  0.000000    -0.000000   -0.050172    0.794783
     -3.333621  3.333622  3.333622    -0.000000   -0.038104    0.603614

 MACROSCOPIC STATIC DIELECTRIC TENSOR IONIC CONTRIBUTION
           8.540051    -0.000234     0.000055
          -0.000234     8.542109    -0.000000
           0.000055    -0.000000     8.541372

 ELASTIC MODULI IONIC CONTR (kBar)
 Direction    XX          YY          ZZ          XY          YZ          ZX
 XX          -0.0000      0.0000      0.0000      0.0000      0.0000     -0.0000
 YY           0.0000     -0.0000     -0.0000     -0.0000     -0.0000      0.0000
 ZZ           0.0000     -0.0000     -0.0000     -0.0000     -0.0000      0.0000
 XY           0.0000     -0.0000     -0.0000     -0.0000      0.0000     -0.0000
 YZ           0.0000     -0.0000     -0.0000      0.0000     -0.0000     -0.0000
 ZX          -0.0000      0.0000      0.0000     -0.0000     -0.0000     -0.0000

 PIEZOELECTRIC TENSOR IONIC CONTR  for field in x, y, z        (C/m^2)
          XX          YY          ZZ          XY          YZ          ZX
  x     0.00050    -0.00001    -0.00001    -0.00000    -0.00000     0.00000
  y    -0.00000     0.00000     0.00000     0.00002    -0.00000     0.00000
  z     0.00000    -0.00000    -0.00000    -0.00000     0.00000     0.00002