 vasp.5.4.4.18Apr17-6-g9f103f2a35 (build Aug 24 2017 11:22:49) complex

 executed on             LinuxIFC date 2023.12.25  13:07:37

 INCAR:
 POTCAR:    PAW_PBE Tl_d 06Sep2000
 POTCAR:    PAW_PBE Br 06Sep2000

 POTCAR:    PAW_PBE Tl_d 06Sep2000
   VRHFIN =Tl:

   TITEL  = PAW_PBE Tl_d 06Sep2000
   POMASS =  204.380; ZVAL   =   13.000    mass and valenz
   ENMAX  =  237.053; ENMIN  =  177.789 eV

 POTCAR:    PAW_PBE Br 06Sep2000
   VRHFIN =Br: s2p5

   TITEL  = PAW_PBE Br 06Sep2000
   POMASS =   79.904; ZVAL   =    7.000    mass and valenz
   ENMAX  =  216.285; ENMIN  =  162.214 eV

  PAW_PBE Tl_d 06Sep2000                :
  PAW_PBE Br 06Sep2000                  :

 POSCAR: Tl1 Br1
  positions in direct lattice
 exchange correlation table for  LEXCH =        8
   RHO(1)=    0.500       N(1)  =     2000
   RHO(2)=  100.500       N(2)  =     4000

 ion  position               nearest neighbor table
   1  0.000  0.000  0.000-   2 3.46   2 3.46   2 3.46   2 3.46   2 3.46   2 3.46   2 3.46   2 3.46

   2  0.500  0.500  0.500-   1 3.46   1 3.46   1 3.46   1 3.46   1 3.46   1 3.46   1 3.46   1 3.46

  LATTYP: Found a simple cubic cell.
 ALAT       =     3.9999063428

  Lattice vectors:

 A1 = (   3.9999063428,   0.0000000000,   0.0000000000)
 A2 = (   0.0000000000,   3.9999063428,   0.0000000000)
 A3 = (   0.0000000000,   0.0000000000,   3.9999063428)

Analysis of symmetry for initial positions (statically):
 Subroutine PRICEL returns:
 Original cell was already a primitive cell.

 Routine SETGRP: Setting up the symmetry group for a
 simple cubic supercell.

 Subroutine GETGRP returns: Found  6 space group operations
 (whereof  6 operations were pure point group operations)
 out of a pool of 48 trial point group operations.

The static configuration has the point symmetry C_3v.

Analysis of symmetry for dynamics (positions and initial velocities):
 Subroutine PRICEL returns:
 Original cell was already a primitive cell.

[...]

The dynamic configuration has the point symmetry C_3v.

 Subroutine INISYM returns: Found  6 space group operations
 (whereof  6 operations are pure point group operations),
 and found     1 'primitive' translations

 KPOINTS: pymatgen with grid density = 3000 / numb

Automatic generation of k-mesh.
Space group operators:
 irot       det(A)        alpha          n_x          n_y          n_z        tau_x        tau_y        tau_z
    1     1.000000     0.000000     1.000000     0.000000     0.000000     0.000000     0.000000     0.000000
    2     1.000000   120.000000    -0.577350    -0.577350    -0.577350     0.000000     0.000000     0.000000
    3     1.000000   120.000000     0.577350     0.577350     0.577350     0.000000     0.000000     0.000000
    4    -1.000000   180.000000     0.000000    -0.707107     0.707107     0.000000     0.000000     0.000000
    5    -1.000000   180.000000     0.707107    -0.707107     0.000000     0.000000     0.000000     0.000000
    6    -1.000000   180.000000     0.707107     0.000000    -0.707107     0.000000     0.000000     0.000000

 Subroutine IBZKPT returns following result:

 Found    189 irreducible k-points:

 Following reciprocal coordinates:
            Coordinates               Weight
  0.000000  0.000000  0.000000      1.000000
  0.083333  0.000000  0.000000      6.000000
  0.166667  0.000000  0.000000      6.000000
  0.250000  0.000000  0.000000      6.000000
  0.333333  0.000000  0.000000      6.000000
  0.416667  0.000000  0.000000      6.000000
  0.500000  0.000000  0.000000      3.000000
  0.083333  0.083333  0.000000      6.000000
  0.166667  0.083333  0.000000     12.000000
  0.250000  0.083333  0.000000     12.000000
  0.333333  0.083333  0.000000     12.000000
  0.416667  0.083333  0.000000     12.000000
  0.500000  0.083333  0.000000     12.000000
 -0.416667  0.083333  0.000000     12.000000
 -0.333333  0.083333  0.000000     12.000000
 -0.250000  0.083333  0.000000     12.000000
 -0.166667  0.083333  0.000000     12.000000
 -0.083333  0.083333  0.000000      6.000000
  0.166667  0.166667  0.000000      6.000000
  0.250000  0.166667  0.000000     12.000000
  0.333333  0.166667  0.000000     12.000000
  0.416667  0.166667  0.000000     12.000000
  0.500000  0.166667  0.000000     12.000000
 -0.416667  0.166667  0.000000     12.000000
 -0.333333  0.166667  0.000000     12.000000
 -0.250000  0.166667  0.000000     12.000000
 -0.166667  0.166667  0.000000      6.000000
  0.250000  0.250000  0.000000      6.000000
  0.333333  0.250000  0.000000     12.000000
  0.416667  0.250000  0.000000     12.000000
  0.500000  0.250000  0.000000     12.000000
 -0.416667  0.250000  0.000000     12.000000
 -0.333333  0.250000  0.000000     12.000000
 -0.250000  0.250000  0.000000      6.000000
  0.333333  0.333333  0.000000      6.000000
  0.416667  0.333333  0.000000     12.000000
  0.500000  0.333333  0.000000     12.000000
 -0.416667  0.333333  0.000000     12.000000
 -0.333333  0.333333  0.000000      6.000000
  0.416667  0.416667  0.000000      6.000000
  0.500000  0.416667  0.000000     12.000000
 -0.416667  0.416667  0.000000      6.000000
  0.500000  0.500000  0.000000      3.000000
  0.083333  0.083333  0.083333      2.000000
  0.166667  0.083333  0.083333      6.000000
  0.250000  0.083333  0.083333      6.000000
  0.333333  0.083333  0.083333      6.000000
  0.416667  0.083333  0.083333      6.000000
  0.500000  0.083333  0.083333      6.000000
 -0.416667  0.083333  0.083333      6.000000
 -0.333333  0.083333  0.083333      6.000000
 -0.250000  0.083333  0.083333      6.000000
 -0.166667  0.083333  0.083333      6.000000
 -0.083333  0.083333  0.083333      6.000000
  0.166667  0.166667  0.083333      6.000000
  0.250000  0.166667  0.083333     12.000000
  0.333333  0.166667  0.083333     12.000000
  0.416667  0.166667  0.083333     12.000000
  0.500000  0.166667  0.083333     12.000000
 -0.416667  0.166667  0.083333     12.000000
[...]
 -0.333333  0.333333  0.333333      6.000000
  0.416667  0.416667  0.333333      6.000000
  0.500000  0.416667  0.333333     12.000000
 -0.416667  0.416667  0.333333     12.000000
 -0.333333  0.416667  0.333333     12.000000
  0.500000  0.500000  0.333333      6.000000
 -0.416667  0.500000  0.333333     12.000000
 -0.333333  0.500000  0.333333      6.000000
 -0.416667 -0.416667  0.333333      6.000000
  0.416667  0.416667  0.416667      2.000000
  0.500000  0.416667  0.416667      6.000000
 -0.416667  0.416667  0.416667      6.000000
  0.500000  0.500000  0.416667      6.000000
 -0.416667  0.500000  0.416667      6.000000
  0.500000  0.500000  0.500000      1.000000

 Following cartesian coordinates:
            Coordinates               Weight
  0.000000  0.000000  0.000000      1.000000
  0.020834  0.000000  0.000000      6.000000
  0.041668  0.000000  0.000000      6.000000
  0.062501  0.000000  0.000000      6.000000
  0.083335  0.000000  0.000000      6.000000
  0.104169  0.000000  0.000000      6.000000
  0.125003  0.000000  0.000000      3.000000
  0.020834  0.020834  0.000000      6.000000
  0.041668  0.020834  0.000000     12.000000
  0.062501  0.020834  0.000000     12.000000
  0.083335  0.020834  0.000000     12.000000
  0.104169  0.020834  0.000000     12.000000
  0.125003  0.020834  0.000000     12.000000
 -0.104169  0.020834  0.000000     12.000000
 -0.083335  0.020834  0.000000     12.000000
 -0.062501  0.020834  0.000000     12.000000
 -0.041668  0.020834  0.000000     12.000000
 -0.020834  0.020834  0.000000      6.000000
  0.041668  0.041668  0.000000      6.000000
  0.062501  0.041668  0.000000     12.000000
  0.083335  0.041668  0.000000     12.000000
  0.104169  0.041668  0.000000     12.000000
  0.125003  0.041668  0.000000     12.000000
 -0.104169  0.041668  0.000000     12.000000
 -0.083335  0.041668  0.000000     12.000000
 -0.062501  0.041668  0.000000     12.000000
 -0.041668  0.041668  0.000000      6.000000
  0.062501  0.062501  0.000000      6.000000
  0.083335  0.062501  0.000000     12.000000
  0.104169  0.062501  0.000000     12.000000
  0.125003  0.062501  0.000000     12.000000
 -0.104169  0.062501  0.000000     12.000000
 -0.083335  0.062501  0.000000     12.000000
 -0.062501  0.062501  0.000000      6.000000
  0.083335  0.083335  0.000000      6.000000
  0.104169  0.083335  0.000000     12.000000
  0.125003  0.083335  0.000000     12.000000
 -0.104169  0.083335  0.000000     12.000000
 -0.083335  0.083335  0.000000      6.000000
  0.104169  0.104169  0.000000      6.000000
  0.125003  0.104169  0.000000     12.000000
 -0.104169  0.104169  0.000000      6.000000
  0.125003  0.125003  0.000000      3.000000
  0.020834  0.020834  0.020834      2.000000
  0.041668  0.020834  0.020834      6.000000
  0.062501  0.020834  0.020834      6.000000
  0.083335  0.020834  0.020834      6.000000
  0.104169  0.020834  0.020834      6.000000
  0.125003  0.020834  0.020834      6.000000
 -0.104169  0.020834  0.020834      6.000000
 -0.083335  0.020834  0.020834      6.000000
 -0.062501  0.020834  0.020834      6.000000
 -0.041668  0.020834  0.020834      6.000000
 -0.020834  0.020834  0.020834      6.000000
  0.041668  0.041668  0.020834      6.000000
  0.062501  0.041668  0.020834     12.000000
  0.083335  0.041668  0.020834     12.000000
  0.104169  0.041668  0.020834     12.000000
  0.125003  0.041668  0.020834     12.000000
 -0.104169  0.041668  0.020834     12.000000
[...]
 -0.083335  0.083335  0.083335      6.000000
  0.104169  0.104169  0.083335      6.000000
  0.125003  0.104169  0.083335     12.000000
 -0.104169  0.104169  0.083335     12.000000
 -0.083335  0.104169  0.083335     12.000000
  0.125003  0.125003  0.083335      6.000000
 -0.104169  0.125003  0.083335     12.000000
 -0.083335  0.125003  0.083335      6.000000
 -0.104169 -0.104169  0.083335      6.000000
  0.104169  0.104169  0.104169      2.000000
  0.125003  0.104169  0.104169      6.000000
 -0.104169  0.104169  0.104169      6.000000
  0.125003  0.125003  0.104169      6.000000
 -0.104169  0.125003  0.104169      6.000000
  0.125003  0.125003  0.125003      1.000000

 Subroutine IBZKPT_HF returns following result:

 Found   1728 k-points in 1st BZ
 the following   1728 k-points will be used (e.g. in the exchange kernel)
 Following reciprocal coordinates:   # in IRBZ
  0.000000  0.000000  0.000000    0.00057870   1 t-inv F
  0.083333  0.000000  0.000000    0.00057870   2 t-inv F
  0.166667  0.000000  0.000000    0.00057870   3 t-inv F
  0.250000  0.000000  0.000000    0.00057870   4 t-inv F
  0.333333  0.000000  0.000000    0.00057870   5 t-inv F
  0.416667  0.000000  0.000000    0.00057870   6 t-inv F
  0.500000  0.000000  0.000000    0.00057870   7 t-inv F
  0.083333  0.083333  0.000000    0.00057870   8 t-inv F
  0.166667  0.083333  0.000000    0.00057870   9 t-inv F
  0.250000  0.083333  0.000000    0.00057870  10 t-inv F
  0.333333  0.083333  0.000000    0.00057870  11 t-inv F
  0.416667  0.083333  0.000000    0.00057870  12 t-inv F
  0.500000  0.083333  0.000000    0.00057870  13 t-inv F
 -0.416667  0.083333  0.000000    0.00057870  14 t-inv F
 -0.333333  0.083333  0.000000    0.00057870  15 t-inv F
 -0.250000  0.083333  0.000000    0.00057870  16 t-inv F
[...]
      2      -7.8525      2.00000
      3      -7.8525      2.00000
      4      -7.6832      2.00000
      5      -7.6832      2.00000
      6      -7.6832      2.00000
      7      -2.3903      2.00000
      8       0.9845      2.00000
      9       0.9845      2.00000
     10       0.9845      2.00000
     11       9.2791      0.00000
     12       9.2791      0.00000
     13       9.4010      0.00000
     14       9.4010      0.00000
     15       9.4010      0.00000
     16      13.2439      0.00000

[...]

 soft charge-density along one line, spin component           1
         0         1         2         3         4         5         6         7         8         9
 total charge-density along one line

------------------------ aborting loop because EDIFF is reached ----------------------------------------

  FORCE on cell =-STRESS in cart. coord.  units (eV):
  Direction    XX          YY          ZZ          XY          YZ          ZX
  Alpha Z    55.49688    55.49688    55.49688
  Ewald    -458.69385  -458.69385  -458.69385     0.00000     0.00000     0.00000
  Hartree   139.83769   139.83769   139.83769    -0.00000    -0.00000    -0.00000
  E(xc)     -88.08545   -88.08545   -88.08545    -0.00000    -0.00000    -0.00000
  Local     -79.75361   -79.75361   -79.75361     0.00000     0.00000     0.00000
  n-local    89.00223    88.71561    88.06638    -0.04385    -0.07826     0.12211
  augment    93.57533    93.57533    93.57533    -0.00000    -0.00000     0.00000
  Kinetic   248.73107   249.09087   250.24923    -0.07871    -1.28934     1.36805
  Fock        0.00000     0.00000     0.00000     0.00000     0.00000     0.00000
  Total       0.32878     0.32878     0.32878     0.00000     0.00000     0.00000
  in kB       8.23128     8.23128     8.23128     0.00000     0.00000     0.00000

 VOLUME and BASIS-vectors are now :
  energy-cutoff  :      520.00
  volume of cell :       64.00
      direct lattice vectors                 reciprocal lattice vectors
     3.999906343  0.000000000  0.000000000     0.250005854  0.000000000  0.000000000
     0.000000000  3.999906343  0.000000000     0.000000000  0.250005854  0.000000000
     0.000000000  0.000000000  3.999906343     0.000000000  0.000000000  0.250005854

  length of vectors
     3.999906343  3.999906343  3.999906343     0.250005854  0.250005854  0.250005854

 FORCES acting on ions
    electron-ion (+dipol)            ewald-force                    non-local-force                 convergence-correction
   -.121E-04 -.121E-04 -.121E-04   0.132E-04 0.132E-04 0.132E-04   -.115E-05 -.115E-05 -.115E-05   0.110E-06 0.110E-06 0.110E-06
   0.129E-04 0.129E-04 0.129E-04   -.132E-04 -.132E-04 -.132E-04   0.170E-06 0.170E-06 0.170E-06   0.799E-07 0.799E-07 0.799E-07
   0.814E-06 0.814E-06 0.814E-06   -.342E-15 0.386E-15 0.778E-15   -.978E-06 -.978E-06 -.978E-06   0.190E-06 0.190E-06 0.190E-06

 POSITION                                       TOTAL-FORCE (eV/Angst)
      0.00000      0.00000      0.00000         0.000000      0.000000      0.000000
      1.99995      1.99995      1.99995        -0.000000     -0.000000     -0.000000
    total drift:                                0.000000      0.000000      0.000000

  FREE ENERGIE OF THE ION-ELECTRON SYSTEM (eV)
  free  energy   TOTEN  =        -5.53892093 eV

  energy  without entropy=       -5.53892093  energy(sigma->0) =       -5.53892093

 Found     2 degrees of freedom:

     directions for atom     1:  x
     directions for atom     2:  x
 Linear response reoptimize wavefunctions
 Linear response to external field (no local field effect), progress :
  Direction:   1
  LATTYP: Found a simple cubic cell.
 ALAT       =     3.9999063428

[...]

The dynamic configuration has the point symmetry C_1h.

[...]

----------------------------------------- Iteration    1(   1)  ---------------------------------------

 Free energy of the ion-electron system (eV)
  -Hartree energ DENC   =         0.00000000
  -V(xc)+E(xc)   XCENC  =         0.00000000
  PAW double counting   =         0.00000000        0.00000000
  entropy T*S    EENTRO =         0.00000000
  eigenvalues    EBANDS =        -0.90891112
  free energy    TOTEN  =        -0.90891112 eV

  energy without entropy =       -0.90891112

[...]

 change of polarisation eV/A/(eV/A) component  1 :     1.890    -0.035     0.213
 dielectric tensor                  component  1 :     6.344    -0.098     0.602

 Linear response to external field (no local field effect), progress :
  Direction:   2
  LATTYP: Found a simple cubic cell.
 ALAT       =     3.9999063428

[...]

 Linear response to external field (no local field effect), progress :
  Direction:   3
  LATTYP: Found a simple cubic cell.
 ALAT       =     3.9999063428

[...]

 HEAD OF MICROSCOPIC STATIC DIELECTRIC TENSOR (INDEPENDENT PARTICLE, excluding Hartree and local field effects)
           6.434496    -0.000000    -0.000000
          -0.000000     6.434496    -0.000000
          -0.000000    -0.000000     6.434496

 Linear response to external field, progress :
  Direction:   1
  LATTYP: Found a simple cubic cell.
 ALAT       =     3.9999063428

[...]

 PIEZOELECTRIC TENSOR FIELD DIRECTION 1  (e Angst)
     0.00011  0.00011  0.00011           ( -0.00000 -0.00000 -0.00000)
     0.00011 -0.00002  0.00009           ( -0.00000 -0.00000 -0.00000)
     0.00011  0.00009 -0.00002           ( -0.00000 -0.00000 -0.00000)

 PIEZOELECTRIC TENSOR FIELD DIRECTION 1  (C/m^2)
     0.00003  0.00003  0.00003
     0.00003 -0.00000  0.00002
     0.00003  0.00002 -0.00000

      POSITION         DIRECTION 1           BORN EFFECTIVE CHARGE    (rigid.aug.   ionic)
      0.00000      0.00000      0.00000     2.09215  0.00000  0.00000 ( -5.09706 13.00000)
      1.99995      1.99995      1.99995    -2.09215  0.00000  0.00000 (  1.39135  7.00000)
    total drift (improves with k-points):  -0.00000  0.00000  0.00000

[...]

 Linear response to external field, progress :
  Direction:   3
  LATTYP: Found a simple cubic cell.
 ALAT       =     3.9999063428

[...]

 change of polarisation eV/A/(eV/A) component  3 :     0.133    -0.133     1.745
 dielectric tensor                  component  3 :     0.376    -0.376     5.936

 PIEZOELECTRIC TENSOR FIELD DIRECTION 3  (e Angst)
    -0.00046  0.00000  0.00002           ( -0.00000 -0.00000 -0.00000)
     0.00000 -0.00046  0.00002           ( -0.00000 -0.00000 -0.00000)
     0.00002  0.00002  0.00098           ( -0.00000 -0.00000 -0.00000)

 PIEZOELECTRIC TENSOR FIELD DIRECTION 3  (C/m^2)
    -0.00012  0.00000  0.00000
     0.00000 -0.00012  0.00000
     0.00000  0.00000  0.00024

      POSITION         DIRECTION 3           BORN EFFECTIVE CHARGE    (rigid.aug.   ionic)
      0.00000      0.00000      0.00000     0.00000  0.00000  2.09215 ( -5.09706 13.00000)
      1.99995      1.99995      1.99995     0.00000  0.00000 -2.09215 (  1.39135  7.00000)
    total drift (improves with k-points):   0.00000  0.00000 -0.00000

[...]

 MACROSCOPIC STATIC DIELECTRIC TENSOR (including local field effects in DFT)
           5.935511    -0.000000    -0.000000
          -0.000000     5.935511    -0.000000
          -0.000000    -0.000000     5.935511

 Linear response:
   Degrees of freedom DOF   =            2
 Linear response progress:
  Degree of freedom:   1/  2
  LATTYP: Found a simple cubic cell.
 ALAT       =     3.9999063428

[...]

 INTERNAL STRAIN TENSOR  FOR ION    1  DIRECTION 1   (eV/Angst):
     0.00001  0.00034  0.00034
     0.00035 -0.00014 -0.00023
     0.00035 -0.00023 -0.00014

 POSITION                   FORCE-CONSTANT FOR ION    1 DIRECTION 1 (eV/Angst/Angst)
      0.00000      0.00000      0.00000        -0.255261      0.000045      0.000045
      1.99995      1.99995      1.99995         0.255261     -0.000045     -0.000045
    total drift:                                0.000000      0.000000      0.000000

 BORN EFFECTIVE CHARGE FOR ION    1 DIRECTION 1 :   2.092   0.000   0.000
                   rigid augmentation           :  -5.097   0.000   0.000
                   ionic contribution           :  13.000   0.000   0.000
                   Berry contribution           :  -5.811   0.000   0.000

 Linear response progress:
  Degree of freedom:   2/  2
  LATTYP: Found a simple cubic cell.
 ALAT       =     3.9999063428

[...]

The dynamic configuration has the point symmetry C_1h.

[...]

----------------------------------------- Iteration    7(  11)  ---------------------------------------

 Broyden mixing:
  rms(total) = 0.50854E-05    rms(broyden)= 0.50853E-05
  rms(prec ) = 0.58447E-05
  weight for this iteration     100.00

 eigenvalues of (default mixing * dielectric matrix)
  average eigenvalue GAMMA=   1.9073
  3.1670  2.9416  2.5501  2.2458  1.7081  1.5894  1.0112  1.0112  0.9411

 Free energy of the ion-electron system (eV)
  -Hartree energ DENC   =        -0.07323078
  -V(xc)+E(xc)   XCENC  =         0.00057991
  PAW double counting   =         0.00014693       -0.00014670
  entropy T*S    EENTRO =         0.00000000
  eigenvalues    EBANDS =        -0.06999370
  free energy    TOTEN  =        -0.14264434 eV

  energy without entropy =       -0.14264434

[...]

 k-point 476 :       0.4167    0.5000    0.5000
  band No.  band energies     occupation
      1       0.0000      0.00000
      2       0.0000      0.00000
      3       0.0000      0.00000
      4       0.0000      0.00000
      5       0.0000      0.00000
      6       0.0000      0.00000
      7       0.0000      0.00000
      8      -0.0000      0.00000
      9      -0.0000      0.00000
     10       0.0000      0.00000
     11       0.0000      0.00000
     12       0.0000      0.00000
     13      -0.0000      0.00000
     14       0.0000      0.00000
     15      -0.0000      0.00000
     16      -0.0000      0.00000

------------------------ aborting loop because EDIFF is reached ----------------------------------------

 INTERNAL STRAIN TENSOR  FOR ION    2  DIRECTION 1   (eV/Angst):
    -0.00015 -0.00090 -0.00090
    -0.00091  0.00016 -0.00008
    -0.00091 -0.00008  0.00016

 POSITION                   FORCE-CONSTANT FOR ION    2 DIRECTION 1 (eV/Angst/Angst)
      0.00000      0.00000      0.00000         0.218040     -0.000015     -0.000015
      1.99995      1.99995      1.99995        -0.218040      0.000015      0.000015
    total drift:                                0.000000     -0.000000     -0.000000

 BORN EFFECTIVE CHARGE FOR ION    2 DIRECTION 1 :  -2.092   0.000   0.000
                   rigid augmentation           :   1.391   0.000   0.000
                   ionic contribution           :   7.000   0.000   0.000
                   Berry contribution           : -10.483   0.000   0.000

  LATTYP: Found a simple cubic cell.
 ALAT       =     3.9999063428

  Lattice vectors:

 A1 = (   3.9999063428,   0.0000000000,   0.0000000000)
 A2 = (   0.0000000000,   3.9999063428,   0.0000000000)
 A3 = (   0.0000000000,   0.0000000000,   3.9999063428)

Analysis of symmetry for initial positions (statically):
 Subroutine PRICEL returns:
 Original cell was already a primitive cell.

[...]

The static configuration has the point symmetry C_3v.

Analysis of symmetry for dynamics (positions and initial velocities):
 Subroutine PRICEL returns:
 Original cell was already a primitive cell.

 Routine SETGRP: Setting up the symmetry group for a
 simple cubic supercell.

 Subroutine GETGRP returns: Found  6 space group operations
 (whereof  6 operations were pure point group operations)
 out of a pool of 48 trial point group operations.

The dynamic configuration has the point symmetry C_3v.

 Subroutine INISYM returns: Found  6 space group operations
 (whereof  6 operations are pure point group operations),
 and found     1 'primitive' translations

 MACROSCOPIC STATIC DIELECTRIC TENSOR (including local field effects in DFT)
           5.935511    -0.000000    -0.000000
          -0.000000     5.935511    -0.000000
          -0.000000    -0.000000     5.935511

 PIEZOELECTRIC TENSOR  for field in x, y, z        (e  Angst)
          XX          YY          ZZ          XY          YZ          ZX
  x     0.00011    -0.00002    -0.00002     0.00011     0.00009     0.00011
  y    -0.00005     0.00024    -0.00005     0.00006     0.00006     0.00009
  z    -0.00046    -0.00046     0.00098     0.00000     0.00002     0.00002

 PIEZOELECTRIC TENSOR  for field in x, y, z        (C/m^2)
          XX          YY          ZZ          XY          YZ          ZX
  x     0.00011    -0.00004    -0.00004     0.00002     0.00002     0.00002
  y    -0.00004     0.00011    -0.00004     0.00002     0.00002     0.00002
  z    -0.00004    -0.00004     0.00011     0.00002     0.00002     0.00002

 BORN EFFECTIVE CHARGES (in e, cummulative output)
 ion    1
    1     2.09215    -0.00000    -0.00000
    2    -0.00000     2.09215    -0.00000
    3    -0.00000    -0.00000     2.09215
 ion    2
    1    -2.09215     0.00000     0.00000
    2     0.00000    -2.09215     0.00000
    3     0.00000     0.00000    -2.09215

 INTERNAL STRAIN TENSOR FOR ION    1 for displacements in x,y,z  (eV/Angst):
          X           Y           Z          XY          YZ          ZX
  x     0.00001    -0.00014    -0.00014     0.00035    -0.00023     0.00034
  y    -0.00014     0.00001    -0.00014     0.00034     0.00035    -0.00023
  z    -0.00014    -0.00014     0.00001    -0.00023     0.00034     0.00035

 INTERNAL STRAIN TENSOR FOR ION    2 for displacements in x,y,z  (eV/Angst):
          X           Y           Z          XY          YZ          ZX
  x    -0.00015     0.00016     0.00016    -0.00091    -0.00008    -0.00090
  y     0.00016    -0.00015     0.00016    -0.00090    -0.00091    -0.00008
  z     0.00016     0.00016    -0.00015    -0.00008    -0.00090    -0.00091

 SECOND DERIVATIVES (NOT SYMMETRIZED)
               1X          1Y          1Z          2X          2Y          2Z
  1X    -0.255261    0.000045    0.000045    0.255261   -0.000045   -0.000045
  1Y     0.000045   -0.255261    0.000045   -0.000045    0.255261   -0.000045
  1Z     0.000045    0.000045   -0.255261   -0.000045   -0.000045    0.255261
  2X     0.218040   -0.000015   -0.000015   -0.218040    0.000015    0.000015
  2Y    -0.000015    0.218040   -0.000015    0.000015   -0.218040    0.000015
  2Z    -0.000015   -0.000015    0.218040    0.000015    0.000015   -0.218040

 Eigenvectors and eigenvalues of the dynamical matrix

   1 f  =    0.986690 THz     6.199559 2PiTHz   32.912450 cm-1     4.080625 meV
             X         Y         Z           dx          dy          dz
      0.000000  0.000000  0.000000     0.200703    0.256079   -0.456781
      1.999953  1.999953  1.999953    -0.296305   -0.378059    0.674364

[...]

   3 f  =    0.986538 THz     6.198598 2PiTHz   32.907349 cm-1     4.079993 meV
             X         Y         Z           dx          dy          dz
      0.000000  0.000000  0.000000    -0.323747   -0.323747   -0.323747
      1.999953  1.999953  1.999953     0.478039    0.478039    0.478039

   4 f/i=    0.036021 THz     0.226326 2PiTHz    1.201530 cm-1     0.148971 meV
             X         Y         Z           dx          dy          dz
      0.000000  0.000000  0.000000    -0.478039   -0.478039   -0.478039
      1.999953  1.999953  1.999953    -0.323747   -0.323747   -0.323747

[...]

   6 f/i=    0.036102 THz     0.226833 2PiTHz    1.204222 cm-1     0.149305 meV
             X         Y         Z           dx          dy          dz
      0.000000  0.000000  0.000000    -0.568153    0.601327   -0.033174
      1.999953  1.999953  1.999953    -0.384839    0.407310   -0.022470

 MACROSCOPIC STATIC DIELECTRIC TENSOR IONIC CONTRIBUTION
          52.138330     0.006748     0.006749
           0.006748    52.138348     0.006749
           0.006749     0.006749    52.138328

 ELASTIC MODULI IONIC CONTR (kBar)
 Direction    XX          YY          ZZ          XY          YZ          ZX
 XX          -0.0000      0.0000      0.0000      0.0000      0.0000      0.0000
 YY           0.0000     -0.0000      0.0000      0.0000      0.0000      0.0000
 ZZ           0.0000      0.0000     -0.0000      0.0000      0.0000      0.0000
 XY           0.0000      0.0000      0.0000     -0.0001     -0.0000     -0.0000
 YZ           0.0000      0.0000      0.0000     -0.0000     -0.0001     -0.0000
 ZX           0.0000      0.0000      0.0000     -0.0000     -0.0000     -0.0001

 PIEZOELECTRIC TENSOR IONIC CONTR  for field in x, y, z        (C/m^2)
          XX          YY          ZZ          XY          YZ          ZX
  x     0.00017    -0.00033    -0.00033     0.00136    -0.00018     0.00135
  y    -0.00033     0.00017    -0.00033     0.00135     0.00136    -0.00018
  z    -0.00033    -0.00033     0.00017    -0.00018     0.00135     0.00136