 vasp.5.4.4.18Apr17-6-g9f103f2a35 (build Aug 24 2017 11:22:49) complex

 executed on             LinuxIFC date 2023.12.25  13:07:39

 INCAR:
 POTCAR:    PAW_PBE Rb_sv 06Sep2000
 POTCAR:    PAW_PBE I 08Apr2002

 POTCAR:    PAW_PBE Rb_sv 06Sep2000
   VRHFIN =Rb: 4s4p5s

   TITEL  = PAW_PBE Rb_sv 06Sep2000
   POMASS =   85.468; ZVAL   =    9.000    mass and valenz
   ENMAX  =  220.112; ENMIN  =  165.084 eV

 POTCAR:    PAW_PBE I 08Apr2002
   VRHFIN =I : s2p5

   TITEL  = PAW_PBE I 08Apr2002
   POMASS =  126.904; ZVAL   =    7.000    mass and valenz
   ENMAX  =  175.647; ENMIN  =  131.735 eV

  PAW_PBE Rb_sv 06Sep2000               :
  PAW_PBE I 08Apr2002                   :

 POSCAR: Rb1 I1
  positions in direct lattice
 exchange correlation table for  LEXCH =        8
   RHO(1)=    0.500       N(1)  =     2000
   RHO(2)=  100.500       N(2)  =     4000

 ion  position               nearest neighbor table
   1  0.000  0.000  0.000-   2 3.69   2 3.69   2 3.69   2 3.69   2 3.69   2 3.69
   2  0.500  0.500  0.500-   1 3.69   1 3.69   1 3.69   1 3.69   1 3.69   1 3.69

  LATTYP: Found a face centered cubic cell.
 ALAT       =     7.3823341631

  Lattice vectors:

 A1 = (  -3.6911670815,   0.0000000000,   3.6911670815)
 A2 = (   0.0000000000,   3.6911670815,   3.6911670815)
 A3 = (  -3.6911670815,   3.6911670815,   0.0000000000)

Analysis of symmetry for initial positions (statically):
 Subroutine PRICEL returns:
 Original cell was already a primitive cell.

 Routine SETGRP: Setting up the symmetry group for a
 face centered cubic supercell.

 Subroutine GETGRP returns: Found  8 space group operations
 (whereof  8 operations were pure point group operations)
 out of a pool of 48 trial point group operations.

The static configuration has the point symmetry C_4v.

Analysis of symmetry for dynamics (positions and initial velocities):
 Subroutine PRICEL returns:
 Original cell was already a primitive cell.

[...]

The dynamic configuration has the point symmetry C_4v.

 Subroutine INISYM returns: Found  8 space group operations
 (whereof  8 operations are pure point group operations),
 and found     1 'primitive' translations

 KPOINTS: pymatgen with grid density = 3000 / numb

Automatic generation of k-mesh.
Space group operators:
 irot       det(A)        alpha          n_x          n_y          n_z        tau_x        tau_y        tau_z
    1     1.000000     0.000000     1.000000     0.000000     0.000000     0.000000     0.000000     0.000000
    2     1.000000    90.000000    -1.000000     0.000000    -0.000000     0.000000     0.000000     0.000000
    3    -1.000000   180.000000    -0.000000     0.000000     1.000000     0.000000     0.000000     0.000000
    4    -1.000000   180.000000     0.000000     0.707107     0.707107     0.000000     0.000000     0.000000
    5    -1.000000   180.000000     0.000000    -1.000000    -0.000000     0.000000     0.000000     0.000000
    6     1.000000    90.000000     1.000000     0.000000     0.000000     0.000000     0.000000     0.000000
    7     1.000000   180.000000     1.000000     0.000000     0.000000     0.000000     0.000000     0.000000
    8    -1.000000   180.000000    -0.000000    -0.707107     0.707107     0.000000     0.000000     0.000000

 Subroutine IBZKPT returns following result:

 Found    163 irreducible k-points:

 Following reciprocal coordinates:
            Coordinates               Weight
  0.000000  0.000000  0.000000      1.000000
  0.083333  0.000000  0.000000      8.000000
  0.166667 -0.000000 -0.000000      8.000000
  0.250000 -0.000000 -0.000000      8.000000
  0.333333 -0.000000 -0.000000      8.000000
  0.416667 -0.000000 -0.000000      8.000000
  0.500000 -0.000000 -0.000000      4.000000
  0.083333  0.083333 -0.000000      4.000000
  0.166667  0.083333 -0.000000     16.000000
  0.250000  0.083333 -0.000000     16.000000
  0.333333  0.083333 -0.000000     16.000000
  0.416667  0.083333 -0.000000     16.000000
  0.500000  0.083333 -0.000000     16.000000
 -0.416667  0.083333  0.000000     16.000000
 -0.333333  0.083333  0.000000     16.000000
 -0.250000  0.083333  0.000000     16.000000
 -0.166667  0.083333  0.000000     16.000000
 -0.083333  0.083333 -0.000000      8.000000
  0.166667  0.166667 -0.000000      4.000000
  0.250000  0.166667 -0.000000     16.000000
  0.333333  0.166667 -0.000000     16.000000
  0.416667  0.166667 -0.000000     16.000000
  0.500000  0.166667 -0.000000     16.000000
 -0.416667  0.166667 -0.000000     16.000000
 -0.333333  0.166667  0.000000     16.000000
 -0.250000  0.166667  0.000000     16.000000
 -0.166667  0.166667  0.000000      8.000000
  0.250000  0.250000 -0.000000      4.000000
  0.333333  0.250000 -0.000000     16.000000
  0.416667  0.250000 -0.000000     16.000000
  0.500000  0.250000 -0.000000     16.000000
 -0.416667  0.250000 -0.000000     16.000000
 -0.333333  0.250000  0.000000     16.000000
 -0.250000  0.250000  0.000000      8.000000
  0.333333  0.333333 -0.000000      4.000000
  0.416667  0.333333  0.000000     16.000000
  0.500000  0.333333 -0.000000     16.000000
 -0.416667  0.333333 -0.000000     16.000000
 -0.333333  0.333333  0.000000      8.000000
  0.416667  0.416667 -0.000000      4.000000
  0.500000  0.416667  0.000000     16.000000
 -0.416667  0.416667  0.000000      8.000000
  0.500000  0.500000 -0.000000      2.000000
  0.083333  0.000000  0.083333      2.000000
  0.166667  0.000000  0.083333      8.000000
  0.250000 -0.000000  0.083333      8.000000
  0.333333 -0.000000  0.083333      8.000000
  0.416667 -0.000000  0.083333      8.000000
  0.500000 -0.000000  0.083333      8.000000
 -0.416667  0.000000  0.083333      8.000000
 -0.333333  0.000000  0.083333      8.000000
 -0.250000  0.000000  0.083333      8.000000
 -0.166667  0.000000  0.083333      8.000000
 -0.083333 -0.000000  0.083333      4.000000
  0.250000  0.166667  0.083333      8.000000
  0.333333  0.166667  0.083333     16.000000
  0.416667  0.166667  0.083333     16.000000
  0.500000  0.166667  0.083333     16.000000
 -0.416667  0.166667  0.083333      8.000000
  0.166667  0.250000  0.083333      8.000000
[...]
  0.333333 -0.083333  0.250000      8.000000
  0.333333 -0.000000  0.333333      2.000000
  0.416667  0.000000  0.333333      8.000000
  0.500000 -0.000000  0.333333      8.000000
 -0.416667 -0.000000  0.333333      8.000000
 -0.333333  0.000000  0.333333      4.000000
  0.416667 -0.250000  0.333333      8.000000
  0.416667 -0.166667  0.333333     16.000000
  0.500000 -0.166667  0.333333      4.000000
  0.416667 -0.083333  0.333333      8.000000
  0.416667 -0.000000  0.416667      2.000000
  0.500000 -0.000000  0.416667      8.000000
 -0.416667  0.000000  0.416667      4.000000
  0.500000 -0.083333  0.416667      4.000000
  0.500000 -0.000000  0.500000      1.000000

 Following cartesian coordinates:
            Coordinates               Weight
  0.000000  0.000000  0.000000      1.000000
 -0.011288 -0.011288  0.011288      8.000000
 -0.022576 -0.022576  0.022576      8.000000
 -0.033865 -0.033865  0.033865      8.000000
 -0.045153 -0.045153  0.045153      8.000000
 -0.056441 -0.056441  0.056441      8.000000
 -0.067729 -0.067729  0.067729      4.000000
  0.000000  0.000000  0.022576      4.000000
 -0.011288 -0.011288  0.033865     16.000000
 -0.022576 -0.022576  0.045153     16.000000
 -0.033865 -0.033865  0.056441     16.000000
 -0.045153 -0.045153  0.067729     16.000000
 -0.056441 -0.056441  0.079017     16.000000
  0.067729  0.067729 -0.045153     16.000000
  0.056441  0.056441 -0.033865     16.000000
  0.045153  0.045153 -0.022576     16.000000
  0.033865  0.033865 -0.011288     16.000000
  0.022576  0.022576  0.000000      8.000000
  0.000000  0.000000  0.045153      4.000000
 -0.011288 -0.011288  0.056441     16.000000
 -0.022576 -0.022576  0.067729     16.000000
 -0.033865 -0.033865  0.079017     16.000000
 -0.045153 -0.045153  0.090306     16.000000
  0.079017  0.079017 -0.033865     16.000000
  0.067729  0.067729 -0.022576     16.000000
  0.056441  0.056441 -0.011288     16.000000
  0.045153  0.045153  0.000000      8.000000
  0.000000  0.000000  0.067729      4.000000
 -0.011288 -0.011288  0.079017     16.000000
 -0.022576 -0.022576  0.090306     16.000000
 -0.033865 -0.033865  0.101594     16.000000
  0.090306  0.090306 -0.022576     16.000000
  0.079017  0.079017 -0.011288     16.000000
  0.067729  0.067729  0.000000      8.000000
  0.000000  0.000000  0.090306      4.000000
 -0.011288 -0.011288  0.101594     16.000000
 -0.022576 -0.022576  0.112882     16.000000
  0.101594  0.101594 -0.011288     16.000000
  0.090306  0.090306  0.000000      8.000000
  0.000000  0.000000  0.112882      4.000000
 -0.011288 -0.011288  0.124170     16.000000
  0.112882  0.112882  0.000000      8.000000
  0.000000  0.000000  0.135459      2.000000
 -0.022576  0.000000 -0.000000      2.000000
 -0.033865 -0.011288  0.011288      8.000000
 -0.045153 -0.022576  0.022576      8.000000
 -0.056441 -0.033865  0.033865      8.000000
 -0.067729 -0.045153  0.045153      8.000000
 -0.079017 -0.056441  0.056441      8.000000
  0.045153  0.067729 -0.067729      8.000000
  0.033865  0.056441 -0.056441      8.000000
  0.022576  0.045153 -0.045153      8.000000
  0.011288  0.033865 -0.033865      8.000000
  0.000000  0.022576 -0.022576      4.000000
 -0.022576  0.000000  0.045153      8.000000
 -0.033865 -0.011288  0.056441     16.000000
 -0.045153 -0.022576  0.067729     16.000000
 -0.056441 -0.033865  0.079017     16.000000
  0.067729  0.090306 -0.045153      8.000000
  0.000000  0.022576  0.045153      8.000000
[...]
 -0.090306 -0.022576  0.000000      8.000000
 -0.090306  0.000000  0.000000      2.000000
 -0.101594 -0.011288  0.011288      8.000000
 -0.112882 -0.022576  0.022576      8.000000
  0.011288  0.101594 -0.101594      8.000000
  0.000000  0.090306 -0.090306      4.000000
 -0.135459 -0.045153 -0.022576      8.000000
 -0.124170 -0.033865 -0.011288     16.000000
 -0.135459 -0.045153  0.000000      4.000000
 -0.112882 -0.022576  0.000000      8.000000
 -0.112882  0.000000  0.000000      2.000000
 -0.124170 -0.011288  0.011288      8.000000
 -0.000000  0.112882 -0.112882      4.000000
 -0.135459 -0.022576 -0.000000      4.000000
 -0.135459  0.000000  0.000000      1.000000

 Subroutine IBZKPT_HF returns following result:

 Found   1728 k-points in 1st BZ
 the following   1728 k-points will be used (e.g. in the exchange kernel)
 Following reciprocal coordinates:   # in IRBZ
  0.000000  0.000000  0.000000    0.00057870   1 t-inv F
  0.083333  0.000000  0.000000    0.00057870   2 t-inv F
  0.166667 -0.000000 -0.000000    0.00057870   3 t-inv F
  0.250000 -0.000000 -0.000000    0.00057870   4 t-inv F
  0.333333 -0.000000 -0.000000    0.00057870   5 t-inv F
  0.416667 -0.000000 -0.000000    0.00057870   6 t-inv F
  0.500000 -0.000000 -0.000000    0.00057870   7 t-inv F
  0.083333  0.083333 -0.000000    0.00057870   8 t-inv F
  0.166667  0.083333 -0.000000    0.00057870   9 t-inv F
  0.250000  0.083333 -0.000000    0.00057870  10 t-inv F
  0.333333  0.083333 -0.000000    0.00057870  11 t-inv F
  0.416667  0.083333 -0.000000    0.00057870  12 t-inv F
[...]
      9       3.1472      0.00000
     10       5.5537      0.00000
     11       5.5537      0.00000
     12       5.5537      0.00000
     13       6.2501      0.00000
     14       6.2501      0.00000
     15       8.6928      0.00000
     16      12.3030      0.00000

[...]

 soft charge-density along one line, spin component           1
         0         1         2         3         4         5         6         7         8         9
 total charge-density along one line

------------------------ aborting loop because EDIFF is reached ----------------------------------------

  FORCE on cell =-STRESS in cart. coord.  units (eV):
  Direction    XX          YY          ZZ          XY          YZ          ZX
  Alpha Z    30.64702    30.64702    30.64702
  Ewald    -238.40519  -238.40519  -238.40519    -0.00000     0.00000     0.00000
  Hartree    68.37557    68.37557    68.37557    -0.00000     0.00000    -0.00000
  E(xc)     -59.72399   -59.72399   -59.72399    -0.00000     0.00000    -0.00000
  Local     -59.06481   -59.06481   -59.06481    -0.00001     0.00001    -0.00001
  n-local    98.10718    98.52998    97.68437    -0.98034     0.13663     0.39331
  augment   -37.18592   -37.18592   -37.18592     0.00001    -0.00001     0.00001
  Kinetic   197.54154   197.83125   197.25183    -2.04494     0.29236     0.78592
  Fock        0.00000     0.00000     0.00000     0.00000     0.00000     0.00000
  Total       0.29141     0.29141     0.29141     0.00000     0.00000    -0.00000
  in kB       4.64181     4.64180     4.64180     0.00000     0.00000    -0.00000

 VOLUME and BASIS-vectors are now :
  energy-cutoff  :      520.00
  volume of cell :      100.58
      direct lattice vectors                 reciprocal lattice vectors
    -3.691167082  0.000000000  3.691167082    -0.135458512 -0.135458512  0.135458512
     0.000000000  3.691167082  3.691167082     0.135458512  0.135458512  0.135458512
    -3.691167082  3.691167082  0.000000000    -0.135458512  0.135458512 -0.135458512

  length of vectors
     5.220098548  5.220098548  5.220098548     0.234621025  0.234621025  0.234621025

 FORCES acting on ions
    electron-ion (+dipol)            ewald-force                    non-local-force                 convergence-correction
   -.111E-04 -.882E-14 -.587E-14   0.107E-04 -.191E-16 -.255E-14   0.526E-06 -.129E-23 0.386E-23   0.102E-06 -.686E-12 -.677E-12
   0.108E-04 -.218E-11 -.189E-11   -.107E-04 -.462E-17 0.243E-14   -.327E-06 -.212E-23 0.308E-23   0.384E-07 -.280E-12 -.278E-12
   -.324E-06 -.219E-11 -.189E-11   -.335E-15 -.237E-16 -.127E-15   0.199E-06 -.341E-23 0.694E-23   0.140E-06 -.966E-12 -.955E-12

 POSITION                                       TOTAL-FORCE (eV/Angst)
      0.00000      0.00000      0.00000         0.000000      0.000000     -0.000000
     -3.69117      3.69117      3.69117        -0.000000     -0.000000      0.000000
    total drift:                                0.000000     -0.000000     -0.000000

  FREE ENERGIE OF THE ION-ELECTRON SYSTEM (eV)
  free  energy   TOTEN  =        -5.48099623 eV

  energy  without entropy=       -5.48099623  energy(sigma->0) =       -5.48099623

 Found     4 degrees of freedom:

     directions for atom     1:  y
     directions for atom     2:  y
 Linear response reoptimize wavefunctions
 Linear response to external field (no local field effect), progress :
  Direction:   1
  LATTYP: Found a face centered cubic cell.
 ALAT       =     7.3823341631

[...]

----------------------------------------- Iteration    1(   1)  ---------------------------------------

 Free energy of the ion-electron system (eV)
  -Hartree energ DENC   =         0.00000000
  -V(xc)+E(xc)   XCENC  =         0.00000000
  PAW double counting   =         0.00000000        0.00000000
  entropy T*S    EENTRO =         0.00000000
  eigenvalues    EBANDS =        -0.56925470
  free energy    TOTEN  =        -0.56925470 eV

  energy without entropy =       -0.56925470

[...]

 change of polarisation eV/A/(eV/A) component  1 :     1.166    -0.137     0.049
 dielectric tensor                  component  1 :     3.097    -0.247     0.088

 Linear response to external field (no local field effect), progress :
  Direction:   2
  LATTYP: Found a face centered cubic cell.
 ALAT       =     7.3823341631

[...]

The dynamic configuration has the point symmetry C_1h.

[...]

 Linear response to external field (no local field effect), progress :
  Direction:   3
  LATTYP: Found a face centered cubic cell.
 ALAT       =     7.3823341631

[...]

 HEAD OF MICROSCOPIC STATIC DIELECTRIC TENSOR (INDEPENDENT PARTICLE, excluding Hartree and local field effects)
           3.097238     0.000000    -0.000000
           0.000000     3.097242     0.000000
          -0.000000     0.000000     3.097242

 Linear response to external field, progress :
  Direction:   1
  LATTYP: Found a face centered cubic cell.
 ALAT       =     7.3823341631

[...]

 PIEZOELECTRIC TENSOR FIELD DIRECTION 1  (e Angst)
     0.00007  0.00000 -0.00000           ( -0.00000  0.00000 -0.00000)
    -0.00000  0.00006  0.00000           (  0.00000  0.00000  0.00000)
    -0.00000  0.00000  0.00006           ( -0.00000  0.00000  0.00000)

 PIEZOELECTRIC TENSOR FIELD DIRECTION 1  (C/m^2)
     0.00001  0.00000 -0.00000
    -0.00000  0.00001  0.00000
    -0.00000  0.00000  0.00001

      POSITION         DIRECTION 1           BORN EFFECTIVE CHARGE    (rigid.aug.   ionic)
      0.00000      0.00000      0.00000     1.16319  0.00000 -0.00000 (  0.13299  9.00000)
     -3.69117      3.69117      3.69117    -1.16319  0.00000  0.00000 (  1.66190  7.00000)
    total drift (improves with k-points):  -0.00000  0.00000  0.00000

[...]

 Linear response to external field, progress :
  Direction:   3
  LATTYP: Found a face centered cubic cell.
 ALAT       =     7.3823341631

[...]

 change of polarisation eV/A/(eV/A) component  3 :    -0.000     0.003     0.985
 dielectric tensor                  component  3 :    -0.000     0.005     2.773

 PIEZOELECTRIC TENSOR FIELD DIRECTION 3  (e Angst)
    -0.00001  0.00000 -0.00006           (  0.00000  0.00000  0.00000)
     0.00000 -0.00003  0.00000           (  0.00000  0.00000  0.00000)
    -0.00006  0.00000 -0.00000           (  0.00000  0.00000  0.00000)

 PIEZOELECTRIC TENSOR FIELD DIRECTION 3  (C/m^2)
    -0.00000  0.00000 -0.00001
     0.00000 -0.00000  0.00000
    -0.00001  0.00000 -0.00000

      POSITION         DIRECTION 3           BORN EFFECTIVE CHARGE    (rigid.aug.   ionic)
      0.00000      0.00000      0.00000     0.00000  0.00000  1.16319 (  0.13299  9.00000)
     -3.69117      3.69117      3.69117     0.00000 -0.00000 -1.16321 (  1.66190  7.00000)
    total drift (improves with k-points):   0.00000 -0.00000 -0.00002

[...]

 MACROSCOPIC STATIC DIELECTRIC TENSOR (including local field effects in DFT)
           2.772563     0.000000    -0.000000
           0.000000     2.772564     0.000000
          -0.000000     0.000000     2.772564

 Linear response:
   Degrees of freedom DOF   =            4
 Linear response progress:
  Degree of freedom:   1/  4
  LATTYP: Found a face centered cubic cell.
 ALAT       =     7.3823341631

[...]

 INTERNAL STRAIN TENSOR  FOR ION    1  DIRECTION 1   (eV/Angst):
     0.00054 -0.00000 -0.00000
     0.00000  0.00005 -0.00000
     0.00000  0.00000  0.00005

 POSITION                   FORCE-CONSTANT FOR ION    1 DIRECTION 1 (eV/Angst/Angst)
      0.00000      0.00000      0.00000        -0.986224     -0.000000      0.000000
     -3.69117      3.69117      3.69117         0.986224      0.000000     -0.000000
    total drift:                                0.000000      0.000000      0.000000

 BORN EFFECTIVE CHARGE FOR ION    1 DIRECTION 1 :   1.163   0.000  -0.000
                   rigid augmentation           :   0.133   0.000  -0.000
                   ionic contribution           :   9.000   0.000  -0.000
                   Berry contribution           :  -7.970  -0.000   0.000

 Linear response progress:
  Degree of freedom:   2/  4
  LATTYP: Found a face centered cubic cell.
 ALAT       =     7.3823341631

[...]

 Linear response progress:
  Degree of freedom:   4/  4
  LATTYP: Found a face centered cubic cell.
 ALAT       =     7.3823341631

[...]

The dynamic configuration has the point symmetry C_1h.

[...]

----------------------------------------- Iteration    8(  14)  ---------------------------------------

 Broyden mixing:
  rms(total) = 0.42775E-05    rms(broyden)= 0.42775E-05
  rms(prec ) = 0.43915E-05
  weight for this iteration     100.00

 eigenvalues of (default mixing * dielectric matrix)
  average eigenvalue GAMMA=   1.8680
  3.4737  3.2606  2.7405  2.3599  2.3599  1.6738  1.5751  1.2120  0.9926  0.9460
  0.9111  0.9111

 Free energy of the ion-electron system (eV)
  -Hartree energ DENC   =        -0.04760452
  -V(xc)+E(xc)   XCENC  =         0.00037864
  PAW double counting   =         0.00004085       -0.00004083
  entropy T*S    EENTRO =        -0.00000000
  eigenvalues    EBANDS =        -0.04042515
  free energy    TOTEN  =        -0.08765101 eV

  energy without entropy =       -0.08765101

[...]

 k-point 476 :      -0.0000   -0.5000   -0.5000
  band No.  band energies     occupation
      1      -0.0001      0.00000
      2       0.0002      0.00000
      3      -0.0000      0.00000
      4      -0.0000      0.00000
      5      -0.0000      0.00000
      6       0.0001      0.00000
      7       0.0001      0.00000
      8       0.0001      0.00000
      9       0.0000      0.00000
     10       0.0000      0.00000
     11       0.0000      0.00000
     12      -0.0000      0.00000
     13       0.0001      0.00000
     14      -0.0000      0.00000
     15      -0.0000      0.00000
     16       0.0002      0.00000

------------------------ aborting loop because EDIFF is reached ----------------------------------------

 INTERNAL STRAIN TENSOR  FOR ION    2  DIRECTION 2   (eV/Angst):
     0.00068 -0.00074  0.00000
    -0.00072  0.00031  0.00000
     0.00000  0.00000  0.00022

 POSITION                   FORCE-CONSTANT FOR ION    2 DIRECTION 2 (eV/Angst/Angst)
      0.00000      0.00000      0.00000        -0.000014      0.981385     -0.000000
     -3.69117      3.69117      3.69117         0.000014     -0.981385      0.000000
    total drift:                               -0.000000      0.000000      0.000000

 BORN EFFECTIVE CHARGE FOR ION    2 DIRECTION 2 :  -0.000  -1.163  -0.000
                   rigid augmentation           :   0.000   1.662   0.000
                   ionic contribution           :   0.000   7.000   0.000
                   Berry contribution           :  -0.000  -9.825  -0.000

  LATTYP: Found a face centered cubic cell.
 ALAT       =     7.3823341631

  Lattice vectors:

 A1 = (  -3.6911670815,   0.0000000000,   3.6911670815)
 A2 = (   0.0000000000,   3.6911670815,   3.6911670815)
 A3 = (  -3.6911670815,   3.6911670815,   0.0000000000)

Analysis of symmetry for initial positions (statically):
 Subroutine PRICEL returns:
 Original cell was already a primitive cell.

[...]

The static configuration has the point symmetry C_4v.

Analysis of symmetry for dynamics (positions and initial velocities):
 Subroutine PRICEL returns:
 Original cell was already a primitive cell.

 Routine SETGRP: Setting up the symmetry group for a
 face centered cubic supercell.

 Subroutine GETGRP returns: Found  8 space group operations
 (whereof  8 operations were pure point group operations)
 out of a pool of 48 trial point group operations.

The dynamic configuration has the point symmetry C_4v.

 Subroutine INISYM returns: Found  8 space group operations
 (whereof  8 operations are pure point group operations),
 and found     1 'primitive' translations

 MACROSCOPIC STATIC DIELECTRIC TENSOR (including local field effects in DFT)
           2.772563     0.000000    -0.000000
           0.000000     2.772564     0.000000
          -0.000000     0.000000     2.772564

 PIEZOELECTRIC TENSOR  for field in x, y, z        (e  Angst)
          XX          YY          ZZ          XY          YZ          ZX
  x     0.00007     0.00006     0.00006    -0.00000     0.00000    -0.00000
  y    -0.00008    -0.00002    -0.00004     0.00022     0.00000    -0.00000
  z    -0.00001    -0.00003    -0.00000     0.00000     0.00000    -0.00006

 PIEZOELECTRIC TENSOR  for field in x, y, z        (C/m^2)
          XX          YY          ZZ          XY          YZ          ZX
  x     0.00001     0.00001     0.00001     0.00000     0.00000    -0.00000
  y     0.00000     0.00000     0.00000     0.00001    -0.00000     0.00000
  z    -0.00000     0.00000    -0.00000     0.00000     0.00000     0.00001

 BORN EFFECTIVE CHARGES (in e, cummulative output)
 ion    1
    1     1.16319    -0.00000    -0.00000
    2    -0.00000     1.16320    -0.00000
    3     0.00000     0.00000     1.16320
 ion    2
    1    -1.16319     0.00000     0.00000
    2     0.00000    -1.16320     0.00000
    3    -0.00000    -0.00000    -1.16320

 INTERNAL STRAIN TENSOR FOR ION    1 for displacements in x,y,z  (eV/Angst):
          X           Y           Z          XY          YZ          ZX
  x     0.00054     0.00005     0.00005     0.00000     0.00000    -0.00000
  y    -0.00000     0.00000     0.00000    -0.00034     0.00000    -0.00000
  z     0.00000    -0.00000     0.00000    -0.00000    -0.00000    -0.00033

 INTERNAL STRAIN TENSOR FOR ION    2 for displacements in x,y,z  (eV/Angst):
          X           Y           Z          XY          YZ          ZX
  x    -0.00042    -0.00033    -0.00033    -0.00000    -0.00000     0.00000
  y    -0.00000    -0.00000    -0.00000    -0.00072     0.00000    -0.00000
  z     0.00000     0.00000     0.00000    -0.00000    -0.00000    -0.00074

 SECOND DERIVATIVES (NOT SYMMETRIZED)
               1X          1Y          1Z          2X          2Y          2Z
  1X    -0.986224   -0.000000    0.000000    0.986224    0.000000   -0.000000
  1Y    -0.000000   -0.986013   -0.000000    0.000000    0.986013    0.000000
  1Z     0.000000   -0.000000   -0.986013   -0.000000    0.000000    0.986013
  2X     0.981431    0.000000   -0.000000   -0.981431   -0.000000    0.000000
  2Y     0.000000    0.981385    0.000000   -0.000000   -0.981385   -0.000000
  2Z    -0.000000    0.000000    0.981385    0.000000   -0.000000   -0.981385

 Eigenvectors and eigenvalues of the dynamical matrix

   1 f  =    2.170315 THz    13.636494 2PiTHz   72.393930 cm-1     8.975707 meV
             X         Y         Z           dx          dy          dz
      0.000000  0.000000  0.000000     0.773774    0.000000    0.000000
     -3.691167  3.691167  3.691167    -0.633462   -0.000000   -0.000000

[...]

   3 f  =    2.170156 THz    13.635492 2PiTHz   72.388608 cm-1     8.975047 meV
             X         Y         Z           dx          dy          dz
      0.000000  0.000000  0.000000    -0.000000    0.000000    0.773748
     -3.691167  3.691167  3.691167     0.000000   -0.000000   -0.633494

   4 f/i=    0.002502 THz     0.015721 2PiTHz    0.083459 cm-1     0.010348 meV
             X         Y         Z           dx          dy          dz
      0.000000  0.000000  0.000000     0.000000   -0.053718    0.631212
     -3.691167  3.691167  3.691167     0.000000   -0.065611    0.770961

[...]

   6 f/i=    0.002592 THz     0.016283 2PiTHz    0.086446 cm-1     0.010718 meV
             X         Y         Z           dx          dy          dz
      0.000000  0.000000  0.000000     0.633462    0.000000   -0.000000
     -3.691167  3.691167  3.691167     0.773774    0.000000   -0.000000

 MACROSCOPIC STATIC DIELECTRIC TENSOR IONIC CONTRIBUTION
           2.474158    -0.000002     0.000000
          -0.000002     2.474509    -0.000000
           0.000000    -0.000000     2.474503

 ELASTIC MODULI IONIC CONTR (kBar)
 Direction    XX          YY          ZZ          XY          YZ          ZX
 XX          -0.0000     -0.0000     -0.0000     -0.0000     -0.0000      0.0000
 YY          -0.0000     -0.0000     -0.0000     -0.0000     -0.0000      0.0000
 ZZ          -0.0000     -0.0000     -0.0000     -0.0000     -0.0000      0.0000
 XY          -0.0000     -0.0000     -0.0000     -0.0000      0.0000     -0.0000
 YZ          -0.0000     -0.0000     -0.0000      0.0000     -0.0000     -0.0000
 ZX           0.0000      0.0000      0.0000     -0.0000     -0.0000     -0.0000

 PIEZOELECTRIC TENSOR IONIC CONTR  for field in x, y, z        (C/m^2)
          XX          YY          ZZ          XY          YZ          ZX
  x     0.00009     0.00004     0.00004     0.00000     0.00000    -0.00000
  y    -0.00000    -0.00000    -0.00000     0.00004    -0.00000     0.00000
  z     0.00000     0.00000     0.00000    -0.00000     0.00000     0.00004