 vasp.5.4.4.18Apr17-6-g9f103f2a35 (build Aug 24 2017 11:22:49) complex

 executed on             LinuxIFC date 2023.12.25  13:07:07

 INCAR:
 POTCAR:    PAW_PBE C 08Apr2002

 POTCAR:    PAW_PBE C 08Apr2002
   VRHFIN =C: s2p2

   TITEL  = PAW_PBE C 08Apr2002
   POMASS =   12.011; ZVAL   =    4.000    mass and valenz
   ENMAX  =  400.000; ENMIN  =  300.000 eV

  PAW_PBE C 08Apr2002                   :

 POSCAR: C2
  positions in direct lattice
 exchange correlation table for  LEXCH =        8
   RHO(1)=    0.500       N(1)  =     2000
   RHO(2)=  100.500       N(2)  =     4000

 ion  position               nearest neighbor table
   1  0.000  0.000  1.000-   2 1.54   2 1.54   2 1.54   2 1.54
   2  0.750  0.750  0.750-   1 1.54   1 1.54   1 1.54   1 1.54

  LATTYP: Found a face centered cubic cell.
 ALAT       =     3.5607448356

  Lattice vectors:

 A1 = (  -1.7803724178,   0.0000000000,   1.7803724178)
 A2 = (   0.0000000000,   1.7803724178,   1.7803724178)
 A3 = (  -1.7803724178,   1.7803724178,   0.0000000000)

Analysis of symmetry for initial positions (statically):
 Subroutine PRICEL returns:
 Original cell was already a primitive cell.

 Routine SETGRP: Setting up the symmetry group for a
 face centered cubic supercell.

 Subroutine GETGRP returns: Found 12 space group operations
 (whereof  2 operations were pure point group operations)
 out of a pool of 48 trial point group operations.

The static configuration has the point symmetry C_1h.
 The point group associated with its full space group is D_3d.

Analysis of symmetry for dynamics (positions and initial velocities):
 Subroutine PRICEL returns:
 Original cell was already a primitive cell.

[...]

The dynamic configuration has the point symmetry C_1h.
 The point group associated with its full space group is D_3d.

 Subroutine INISYM returns: Found 12 space group operations
 (whereof  2 operations are pure point group operations),
 and found     1 'primitive' translations

 KPOINTS: pymatgen with grid density = 3000 / numb

Automatic generation of k-mesh.
Space group operators:
 irot       det(A)        alpha          n_x          n_y          n_z        tau_x        tau_y        tau_z
    1     1.000000     0.000000     1.000000     0.000000     0.000000     0.000000     0.000000     0.000000
    2    -1.000000   180.000000     0.707107     0.000000    -0.707107     0.000000     0.000000     0.000000
    3    -1.000000     0.000000     1.000000     0.000000     0.000000     0.750000     0.750000     0.750000
    4     1.000000   180.000000     0.707107     0.000000    -0.707107     0.750000     0.750000     0.750000
    5     1.000000   180.000000     0.000000     0.707107     0.707107     0.750000     0.750000     0.750000
    6    -1.000000   180.000000     0.000000     0.707107     0.707107    -0.000000     0.000000     0.000000
    7     1.000000   120.000000     0.577350    -0.577350     0.577350     0.000000     0.000000     0.000000
    8    -1.000000   120.000000     0.577350    -0.577350     0.577350     0.750000     0.750000     0.750000
    9     1.000000   120.000000    -0.577350     0.577350    -0.577350     1.000000     0.000000    -0.000000
   10    -1.000000   120.000000    -0.577350     0.577350    -0.577350     0.750000     0.750000     0.750000
   11     1.000000   180.000000     0.707107     0.707107     0.000000     0.750000     0.750000     0.750000
   12    -1.000000   180.000000     0.707107     0.707107     0.000000     1.000000     0.000000    -0.000000

 Subroutine IBZKPT returns following result:

 Found    189 irreducible k-points:

 Following reciprocal coordinates:
            Coordinates               Weight
  0.000000  0.000000  0.000000      1.000000
  0.083333 -0.000000 -0.000000      6.000000
  0.166667 -0.000000 -0.000000      6.000000
  0.250000 -0.000000 -0.000000      6.000000
  0.333333 -0.000000 -0.000000      6.000000
  0.416667 -0.000000 -0.000000      6.000000
  0.500000 -0.000000 -0.000000      3.000000
  0.083333  0.083333 -0.000000      6.000000
  0.166667  0.083333 -0.000000     12.000000
  0.250000  0.083333 -0.000000     12.000000
  0.333333  0.083333 -0.000000     12.000000
  0.416667  0.083333 -0.000000     12.000000
  0.500000  0.083333 -0.000000     12.000000
 -0.416667  0.083333  0.000000     12.000000
 -0.333333  0.083333  0.000000     12.000000
 -0.250000  0.083333  0.000000     12.000000
 -0.166667  0.083333  0.000000     12.000000
 -0.083333  0.083333  0.000000      6.000000
  0.166667  0.166667 -0.000000      6.000000
  0.250000  0.166667  0.000000     12.000000
  0.333333  0.166667  0.000000     12.000000
  0.416667  0.166667  0.000000     12.000000
  0.500000  0.166667  0.000000     12.000000
 -0.416667  0.166667  0.000000     12.000000
 -0.333333  0.166667  0.000000     12.000000
 -0.250000  0.166667  0.000000     12.000000
 -0.166667  0.166667  0.000000      6.000000
  0.250000  0.250000 -0.000000      6.000000
  0.333333  0.250000 -0.000000     12.000000
  0.416667  0.250000 -0.000000     12.000000
  0.500000  0.250000  0.000000     12.000000
 -0.416667  0.250000  0.000000     12.000000
 -0.333333  0.250000  0.000000     12.000000
 -0.250000  0.250000  0.000000      6.000000
  0.333333  0.333333 -0.000000      6.000000
  0.416667  0.333333 -0.000000     12.000000
  0.500000  0.333333 -0.000000     12.000000
 -0.416667  0.333333  0.000000     12.000000
 -0.333333  0.333333  0.000000      6.000000
  0.416667  0.416667 -0.000000      6.000000
  0.500000  0.416667 -0.000000     12.000000
 -0.416667  0.416667  0.000000      6.000000
  0.500000  0.500000 -0.000000      3.000000
  0.000000  0.000000  0.083333      2.000000
  0.166667 -0.000000  0.083333      6.000000
  0.250000 -0.000000  0.083333      6.000000
  0.333333 -0.000000  0.083333      6.000000
  0.416667 -0.000000  0.083333      6.000000
  0.500000 -0.000000  0.083333      6.000000
 -0.416667  0.000000  0.083333      6.000000
 -0.333333  0.000000  0.083333      6.000000
 -0.250000  0.000000  0.083333      6.000000
 -0.166667  0.000000  0.083333      6.000000
 -0.083333  0.000000  0.083333      6.000000
  0.250000  0.166667  0.083333     12.000000
  0.333333  0.166667  0.083333     12.000000
  0.416667  0.166667  0.083333     12.000000
  0.500000  0.166667  0.083333     12.000000
 -0.416667  0.166667  0.083333      6.000000
  0.250000  0.250000  0.083333      6.000000
[...]
 -0.083333  0.000000  0.333333      6.000000
 -0.250000 -0.333333  0.333333     12.000000
 -0.166667 -0.333333  0.333333      6.000000
 -0.250000 -0.250000  0.333333      6.000000
 -0.166667 -0.250000  0.333333     12.000000
 -0.083333 -0.250000  0.333333     12.000000
 -0.166667 -0.166667  0.333333      6.000000
 -0.083333 -0.166667  0.333333     12.000000
 -0.083333 -0.083333  0.333333      6.000000
 -0.000000  0.000000  0.416667      2.000000
 -0.166667  0.000000  0.416667      6.000000
 -0.083333 -0.000000  0.416667      6.000000
 -0.083333 -0.166667  0.416667      6.000000
 -0.083333 -0.083333  0.416667      6.000000
 -0.000000 -0.000000  0.500000      1.000000

 Following cartesian coordinates:
            Coordinates               Weight
  0.000000  0.000000  0.000000      1.000000
 -0.023403 -0.023403  0.023403      6.000000
 -0.046807 -0.046807  0.046807      6.000000
 -0.070210 -0.070210  0.070210      6.000000
 -0.093613 -0.093613  0.093613      6.000000
 -0.117017 -0.117017  0.117017      6.000000
 -0.140420 -0.140420  0.140420      3.000000
  0.000000  0.000000  0.046807      6.000000
 -0.023403 -0.023403  0.070210     12.000000
 -0.046807 -0.046807  0.093613     12.000000
 -0.070210 -0.070210  0.117017     12.000000
 -0.093613 -0.093613  0.140420     12.000000
 -0.117017 -0.117017  0.163823     12.000000
  0.140420  0.140420 -0.093613     12.000000
  0.117017  0.117017 -0.070210     12.000000
  0.093613  0.093613 -0.046807     12.000000
  0.070210  0.070210 -0.023403     12.000000
  0.046807  0.046807  0.000000      6.000000
  0.000000  0.000000  0.093613      6.000000
 -0.023403 -0.023403  0.117017     12.000000
 -0.046807 -0.046807  0.140420     12.000000
 -0.070210 -0.070210  0.163823     12.000000
 -0.093613 -0.093613  0.187227     12.000000
  0.163823  0.163823 -0.070210     12.000000
  0.140420  0.140420 -0.046807     12.000000
  0.117017  0.117017 -0.023403     12.000000
  0.093613  0.093613  0.000000      6.000000
  0.000000  0.000000  0.140420      6.000000
 -0.023403 -0.023403  0.163823     12.000000
 -0.046807 -0.046807  0.187227     12.000000
 -0.070210 -0.070210  0.210630     12.000000
  0.187227  0.187227 -0.046807     12.000000
  0.163823  0.163823 -0.023403     12.000000
  0.140420  0.140420 -0.000000      6.000000
  0.000000  0.000000  0.187227      6.000000
 -0.023403 -0.023403  0.210630     12.000000
 -0.046807 -0.046807  0.234033     12.000000
  0.210630  0.210630 -0.023403     12.000000
  0.187227  0.187227  0.000000      6.000000
  0.000000  0.000000  0.234033      6.000000
 -0.023403 -0.023403  0.257437     12.000000
  0.234033  0.234033  0.000000      6.000000
  0.000000  0.000000  0.280840      3.000000
 -0.023403  0.023403 -0.023403      2.000000
 -0.070210 -0.023403  0.023403      6.000000
 -0.093613 -0.046807  0.046807      6.000000
 -0.117017 -0.070210  0.070210      6.000000
 -0.140420 -0.093613  0.093613      6.000000
 -0.163823 -0.117017  0.117017      6.000000
  0.093613  0.140420 -0.140420      6.000000
  0.070210  0.117017 -0.117017      6.000000
  0.046807  0.093613 -0.093613      6.000000
  0.023403  0.070210 -0.070210      6.000000
  0.000000  0.046807 -0.046807      6.000000
 -0.046807  0.000000  0.093613     12.000000
 -0.070210 -0.023403  0.117017     12.000000
 -0.093613 -0.046807  0.140420     12.000000
 -0.117017 -0.070210  0.163823     12.000000
  0.140420  0.187227 -0.093613      6.000000
 -0.023403  0.023403  0.117017      6.000000
[...]
 -0.070210  0.117017 -0.117017      6.000000
 -0.117017  0.070210 -0.257437     12.000000
 -0.140420  0.046807 -0.234033      6.000000
 -0.093613  0.093613 -0.234033      6.000000
 -0.117017  0.070210 -0.210630     12.000000
 -0.140420  0.046807 -0.187227     12.000000
 -0.093613  0.093613 -0.187227      6.000000
 -0.117017  0.070210 -0.163823     12.000000
 -0.093613  0.093613 -0.140420      6.000000
 -0.117017  0.117017 -0.117017      2.000000
 -0.070210  0.163823 -0.163823      6.000000
 -0.093613  0.140420 -0.140420      6.000000
 -0.140420  0.093613 -0.187227      6.000000
 -0.117017  0.117017 -0.163823      6.000000
 -0.140420  0.140420 -0.140420      1.000000

 Subroutine IBZKPT_HF returns following result:

 Found   1728 k-points in 1st BZ
 the following   1728 k-points will be used (e.g. in the exchange kernel)
 Following reciprocal coordinates:   # in IRBZ
  0.000000  0.000000  0.000000    0.00057870   1 t-inv F
  0.083333 -0.000000 -0.000000    0.00057870   2 t-inv F
  0.166667 -0.000000 -0.000000    0.00057870   3 t-inv F
  0.250000 -0.000000 -0.000000    0.00057870   4 t-inv F
  0.333333 -0.000000 -0.000000    0.00057870   5 t-inv F
  0.416667 -0.000000 -0.000000    0.00057870   6 t-inv F
  0.500000 -0.000000 -0.000000    0.00057870   7 t-inv F
  0.083333  0.083333 -0.000000    0.00057870   8 t-inv F
[...]
 augmentation part        0.1909496 magnetization

 Free energy of the ion-electron system (eV)
  alpha Z        PSCENC =        29.11304487
  Ewald energy   TEWEN  =      -348.55065377
  -Hartree energ DENC   =       -26.33319694
  -exchange      EXHF   =         0.00000000
  -V(xc)+E(xc)   XCENC  =        28.24409352
  PAW double counting   =       772.09593076     -773.43835238
  entropy T*S    EENTRO =        -0.00000000
  eigenvalues    EBANDS =         6.38745666
  atomic energy  EATOM  =       294.29778662
  Solvation  Ediel_sol  =         0.00000000
  free energy    TOTEN  =       -18.18389065 eV

  energy without entropy =      -18.18389065  energy(sigma->0) =      -18.18389065

 average (electrostatic) potential at core
  the test charge radii are     0.6991
  (the norm of the test charge is              1.0000)
       1 -45.3090       2 -45.3090

 E-fermi :   9.8777     XC(G=0): -13.2762     alpha+bet :-17.7597

 k-point     1 :       0.0000    0.0000    0.0000
  band No.  band energies     occupation
      1     -11.7421      2.00000
      2       9.8032      2.00000
      3       9.8032      2.00000
      4       9.8032      2.00000
      5      15.4070      0.00000
      6      15.4070      0.00000
      7      15.4070      0.00000
      8      23.2511      0.00000

[...]

 soft charge-density along one line, spin component           1
         0         1         2         3         4         5         6         7         8         9
 total charge-density along one line

------------------------ aborting loop because EDIFF is reached ----------------------------------------

  FORCE on cell =-STRESS in cart. coord.  units (eV):
  Direction    XX          YY          ZZ          XY          YZ          ZX
  Alpha Z    29.11304    29.11304    29.11304
  Ewald    -116.18360  -116.18360  -116.18360     0.00001     0.00001    -0.00001
  Hartree     8.77774     8.77774     8.77774     0.00000     0.00000    -0.00000
  E(xc)     -30.47361   -30.47361   -30.47361     0.00000     0.00000    -0.00000
  Local     -10.92185   -10.92185   -10.92185    -0.00001    -0.00001     0.00001
  n-local    -6.57768    -7.29661    -7.93423     0.17016    -0.10604     0.06413
  augment    -0.72983    -0.72983    -0.72983     0.00000    -0.00000     0.00000
  Kinetic   124.10622   130.39203   129.56166    -1.40133     1.20115    -0.20017
  Fock        0.00000     0.00000     0.00000     0.00000     0.00000     0.00000
  Total       0.33235     0.33235     0.33235     0.00000     0.00000    -0.00000
  in kB      47.17846    47.17846    47.17846     0.00002     0.00002    -0.00002

 VOLUME and BASIS-vectors are now :
  energy-cutoff  :      520.00
  volume of cell :       11.29
      direct lattice vectors                 reciprocal lattice vectors
    -1.780372418  0.000000000  1.780372418    -0.280840118 -0.280840118  0.280840118
     0.000000000  1.780372418  1.780372418     0.280840118  0.280840118  0.280840118
    -1.780372418  1.780372418  0.000000000    -0.280840118  0.280840118 -0.280840118

  length of vectors
     2.517826819  2.517826819  2.517826819     0.486429353  0.486429353  0.486429353

 FORCES acting on ions
    electron-ion (+dipol)            ewald-force                    non-local-force                 convergence-correction
   0.466E-05 -.466E-05 0.451E-05   -.585E-05 0.585E-05 -.585E-05   -.147E-05 0.147E-05 -.147E-05   -.311E-08 0.311E-08 -.233E-08
   -.466E-05 0.466E-05 -.451E-05   0.585E-05 -.585E-05 0.585E-05   0.147E-05 -.147E-05 0.147E-05   0.311E-08 -.311E-08 0.233E-08
   -.882E-10 -.315E-10 -.832E-10   -.994E-15 0.187E-15 0.857E-15   -.201E-16 -.105E-16 -.221E-17   0.113E-13 0.814E-14 -.737E-14

 POSITION                                       TOTAL-FORCE (eV/Angst)
     -1.78037      1.78037      0.00000        -0.000003      0.000003     -0.000003
     -2.67056      2.67056      2.67056         0.000003     -0.000003      0.000003
    total drift:                               -0.000000     -0.000000     -0.000000

  FREE ENERGIE OF THE ION-ELECTRON SYSTEM (eV)
  free  energy   TOTEN  =       -18.18389065 eV

  energy  without entropy=      -18.18389065  energy(sigma->0) =      -18.18389065

 Found     1 degrees of freedom:

     directions for atom     1:  x
 Linear response reoptimize wavefunctions
 Linear response to external field (no local field effect), progress :
  Direction:   1
  LATTYP: Found a face centered cubic cell.
 ALAT       =     3.5607448356

[...]

The dynamic configuration has the point symmetry C_1 .
 The point group associated with its full space group is C_1h.

[...]

----------------------------------------- Iteration    1(   1)  ---------------------------------------

 Free energy of the ion-electron system (eV)
  -Hartree energ DENC   =         0.00000000
  -V(xc)+E(xc)   XCENC  =         0.00000000
  PAW double counting   =         0.00000000        0.00000000
  entropy T*S    EENTRO =         0.00000000
  eigenvalues    EBANDS =        -0.17267895
  free energy    TOTEN  =        -0.17267895 eV

  energy without entropy =       -0.17267895

[...]

 change of polarisation eV/A/(eV/A) component  1 :     0.353    -0.056    -0.001
 dielectric tensor                  component  1 :     6.660    -0.899    -0.015

 Linear response to external field (no local field effect), progress :
  Direction:   2
  LATTYP: Found a face centered cubic cell.
 ALAT       =     3.5607448356

[...]

The dynamic configuration has the point symmetry C_1h.

[...]

 Linear response to external field (no local field effect), progress :
  Direction:   3
  LATTYP: Found a face centered cubic cell.
 ALAT       =     3.5607448356

[...]

 HEAD OF MICROSCOPIC STATIC DIELECTRIC TENSOR (INDEPENDENT PARTICLE, excluding Hartree and local field effects)
           5.944791     0.000379    -0.000379
           0.000379     5.944791     0.000379
          -0.000379     0.000379     5.944791

 Linear response to external field, progress :
  Direction:   1
  LATTYP: Found a face centered cubic cell.
 ALAT       =     3.5607448356

[...]

 PIEZOELECTRIC TENSOR FIELD DIRECTION 1  (e Angst)
    -0.00005 -0.00004  0.00004           (  0.00000 -0.00000  0.00000)
    -0.00004  0.00005 -0.00013           ( -0.00000  0.00000  0.00000)
     0.00004 -0.00013  0.00005           (  0.00000  0.00000  0.00000)

 PIEZOELECTRIC TENSOR FIELD DIRECTION 1  (C/m^2)
    -0.00008 -0.00005  0.00005
    -0.00005  0.00007 -0.00019
     0.00005 -0.00019  0.00007

      POSITION         DIRECTION 1           BORN EFFECTIVE CHARGE    (rigid.aug.   ionic)
     -1.78037      1.78037      0.00000    -0.00004 -0.00002  0.00002 ( -0.09547  4.00000)
     -2.67056      2.67056      2.67056    -0.00020  0.00002 -0.00002 ( -0.09547  4.00000)
    total drift (improves with k-points):  -0.00024 -0.00000  0.00000

[...]

The dynamic configuration has the point symmetry C_1h.

[...]

 Linear response to external field, progress :
  Direction:   3
  LATTYP: Found a face centered cubic cell.
 ALAT       =     3.5607448356

[...]

 change of polarisation eV/A/(eV/A) component  3 :     0.044     0.044     0.300
 dielectric tensor                  component  3 :     0.708     0.709     5.812

 PIEZOELECTRIC TENSOR FIELD DIRECTION 3  (e Angst)
    -0.00002  0.00000 -0.00015           ( -0.00000 -0.00000  0.00000)
     0.00000 -0.00002  0.00015           ( -0.00000 -0.00000 -0.00000)
    -0.00015  0.00015  0.00002           (  0.00000 -0.00000 -0.00000)

 PIEZOELECTRIC TENSOR FIELD DIRECTION 3  (C/m^2)
    -0.00002  0.00000 -0.00021
     0.00000 -0.00002  0.00021
    -0.00021  0.00021  0.00003

      POSITION         DIRECTION 3           BORN EFFECTIVE CHARGE    (rigid.aug.   ionic)
     -1.78037      1.78037      0.00000     0.00001 -0.00001 -0.00007 ( -0.09547  4.00000)
     -2.67056      2.67056      2.67056     0.00010 -0.00010 -0.00007 ( -0.09547  4.00000)
    total drift (improves with k-points):   0.00011 -0.00011 -0.00014

[...]

 MACROSCOPIC STATIC DIELECTRIC TENSOR (including local field effects in DFT)
           5.811971     0.000471    -0.000471
           0.000471     5.811971     0.000471
          -0.000471     0.000471     5.811971

 Linear response:
   Degrees of freedom DOF   =            1
 Linear response progress:
  Degree of freedom:   1/  1
  LATTYP: Found a face centered cubic cell.
 ALAT       =     3.5607448356

[...]

The dynamic configuration has the point symmetry C_1 .
 The point group associated with its full space group is C_1h.

[...]

----------------------------------------- Iteration    4(  10)  ---------------------------------------

 Broyden mixing:
  rms(total) = 0.24632E-05    rms(broyden)= 0.24599E-05
  rms(prec ) = 0.44364E-05
  weight for this iteration     100.00

 eigenvalues of (default mixing * dielectric matrix)
  average eigenvalue GAMMA=   1.8751
  2.7902  2.6236  2.4556  1.9656  2.0587  0.9980  0.9980  1.1107

 Free energy of the ion-electron system (eV)
  -Hartree energ DENC   =        -0.01918567
  -V(xc)+E(xc)   XCENC  =         0.00002592
  PAW double counting   =         0.00469832       -0.00469393
  entropy T*S    EENTRO =        -0.00000000
  eigenvalues    EBANDS =        -0.09286361
  free energy    TOTEN  =        -0.11201897 eV

  energy without entropy =       -0.11201897

[...]

 k-point 476 :      -0.5000    0.0000   -0.5000
  band No.  band energies     occupation
      1      -3.9958      0.00000
      2       3.9957      0.00000
      3      -4.8697      0.00000
      4       4.8696      0.00000
      5      -4.7592      0.00000
      6       4.7591      0.00000
      7      -9.8074      0.00000
      8       9.8072      0.00000

------------------------ aborting loop because EDIFF is reached ----------------------------------------

 INTERNAL STRAIN TENSOR  FOR ION    1  DIRECTION 1   (eV/Angst):
     0.00601 -0.03177  0.03177
     0.03171 -0.00331  3.44343
    -0.03171  3.44343 -0.00331

 POSITION                   FORCE-CONSTANT FOR ION    1 DIRECTION 1 (eV/Angst/Angst)
     -1.78037      1.78037      0.00000       -37.682157      0.000067     -0.000067
     -2.67056      2.67056      2.67056        37.682157     -0.000067      0.000067
    total drift:                                0.000000      0.000000      0.000000

 BORN EFFECTIVE CHARGE FOR ION    1 DIRECTION 1 :  -0.000  -0.000   0.000
                   rigid augmentation           :  -0.095  -0.000   0.000
                   ionic contribution           :   4.000  -0.000   0.000
                   Berry contribution           :  -3.905  -0.000   0.000

  LATTYP: Found a face centered cubic cell.
 ALAT       =     3.5607448356

  Lattice vectors:

 A1 = (  -1.7803724178,   0.0000000000,   1.7803724178)
 A2 = (   0.0000000000,   1.7803724178,   1.7803724178)
 A3 = (  -1.7803724178,   1.7803724178,   0.0000000000)

Analysis of symmetry for initial positions (statically):
 Subroutine PRICEL returns:
 Original cell was already a primitive cell.

[...]

The static configuration has the point symmetry C_1h.
 The point group associated with its full space group is D_3d.

Analysis of symmetry for dynamics (positions and initial velocities):
 Subroutine PRICEL returns:
 Original cell was already a primitive cell.

 Routine SETGRP: Setting up the symmetry group for a
 face centered cubic supercell.

 Subroutine GETGRP returns: Found 12 space group operations
 (whereof  2 operations were pure point group operations)
 out of a pool of 48 trial point group operations.

The dynamic configuration has the point symmetry C_1h.
 The point group associated with its full space group is D_3d.

 Subroutine INISYM returns: Found 12 space group operations
 (whereof  2 operations are pure point group operations),
 and found     1 'primitive' translations

 MACROSCOPIC STATIC DIELECTRIC TENSOR (including local field effects in DFT)
           5.811971     0.000471    -0.000471
           0.000471     5.811971     0.000471
          -0.000471     0.000471     5.811971

 PIEZOELECTRIC TENSOR  for field in x, y, z        (e  Angst)
          XX          YY          ZZ          XY          YZ          ZX
  x    -0.00005     0.00005     0.00005    -0.00004    -0.00013     0.00004
  y    -0.00011     0.00017    -0.00011     0.00005     0.00005    -0.00013
  z    -0.00002    -0.00002     0.00002     0.00000     0.00015    -0.00015

 PIEZOELECTRIC TENSOR  for field in x, y, z        (C/m^2)
          XX          YY          ZZ          XY          YZ          ZX
  x     0.00000     0.00000     0.00000     0.00000     0.00000     0.00000
  y    -0.00000     0.00000    -0.00000     0.00000     0.00000     0.00000
  z     0.00000     0.00000     0.00000     0.00000     0.00000     0.00000

 BORN EFFECTIVE CHARGES (in e, cummulative output)
 ion    1
    1     0.00008    -0.00002     0.00002
    2    -0.00002     0.00007    -0.00002
    3    -0.00005     0.00005    -0.00000
 ion    2
    1    -0.00008     0.00002    -0.00002
    2     0.00002    -0.00007     0.00002
    3     0.00005    -0.00005     0.00000

 INTERNAL STRAIN TENSOR FOR ION    1 for displacements in x,y,z  (eV/Angst):
          X           Y           Z          XY          YZ          ZX
  x     0.00601    -0.00331    -0.00331     0.03171     3.44343     0.03177
  y     0.00331    -0.00601     0.00331     0.03177    -0.03171     3.44343
  z    -0.00331    -0.00331     0.00601     3.44343    -0.03177    -0.03171

 INTERNAL STRAIN TENSOR FOR ION    2 for displacements in x,y,z  (eV/Angst):
          X           Y           Z          XY          YZ          ZX
  x    -0.00601     0.00331     0.00331    -0.03171    -3.44343    -0.03177
  y    -0.00331     0.00601    -0.00331    -0.03177     0.03171    -3.44343
  z     0.00331     0.00331    -0.00601    -3.44343     0.03177     0.03171

 SECOND DERIVATIVES (NOT SYMMETRIZED)
               1X          1Y          1Z          2X          2Y          2Z
  1X   -37.682157    0.000067   -0.000067   37.682157   -0.000067    0.000067
  1Y     0.000067  -37.682157    0.000067   -0.000067   37.682157   -0.000067
  1Z    -0.000067    0.000067  -37.682157    0.000067   -0.000067   37.682157
  2X    37.682157   -0.000067    0.000067  -37.682157    0.000067   -0.000067
  2Y    -0.000067   37.682157   -0.000067    0.000067  -37.682157    0.000067
  2Z     0.000067   -0.000067   37.682157   -0.000067    0.000067  -37.682157

 Eigenvectors and eigenvalues of the dynamical matrix

   1 f  =   39.160189 THz   246.050726 2PiTHz 1306.243272 cm-1   161.953583 meV
             X         Y         Z           dx          dy          dz
     -1.780372  1.780372  0.000000    -0.408248    0.408248   -0.408248
     -2.670559  2.670559  2.670559     0.408248   -0.408248    0.408248

[...]

   4 f  =    0.000001 THz     0.000003 2PiTHz    0.000017 cm-1     0.000002 meV
             X         Y         Z           dx          dy          dz
     -1.780372  1.780372  0.000000    -0.002589    0.067908    0.703834
     -2.670559  2.670559  2.670559    -0.002589    0.067908    0.703834

   5 f/i=    0.000000 THz     0.000001 2PiTHz    0.000005 cm-1     0.000001 meV
             X         Y         Z           dx          dy          dz
     -1.780372  1.780372  0.000000     0.706905   -0.016381    0.004181
     -2.670559  2.670559  2.670559     0.706905   -0.016381    0.004181

   6 f/i=    0.000001 THz     0.000004 2PiTHz    0.000023 cm-1     0.000003 meV
             X         Y         Z           dx          dy          dz
     -1.780372  1.780372  0.000000    -0.016706   -0.703648    0.067829
     -2.670559  2.670559  2.670559    -0.016706   -0.703648    0.067829

 MACROSCOPIC STATIC DIELECTRIC TENSOR IONIC CONTRIBUTION
           0.000000    -0.000000    -0.000000
          -0.000000     0.000000     0.000000
          -0.000000     0.000000     0.000000

 ELASTIC MODULI IONIC CONTR (kBar)
 Direction    XX          YY          ZZ          XY          YZ          ZX
 XX          -0.0002      0.0001      0.0001      0.0418     -0.0779     -0.0441
 YY           0.0001     -0.0002      0.0001      0.0441      0.0418      0.0779
 ZZ           0.0001      0.0001     -0.0002     -0.0779      0.0441     -0.0418
 XY           0.0418      0.0441     -0.0779    -44.6754      0.0047     -0.0047
 YZ          -0.0779      0.0418      0.0441      0.0047    -44.6754     -0.0047
 ZX          -0.0441      0.0779     -0.0418     -0.0047     -0.0047    -44.6754

 PIEZOELECTRIC TENSOR IONIC CONTR  for field in x, y, z        (C/m^2)
          XX          YY          ZZ          XY          YZ          ZX
  x     0.00000    -0.00000    -0.00000     0.00000     0.00001    -0.00000
  y     0.00000    -0.00000     0.00000    -0.00000    -0.00000     0.00001
  z    -0.00000    -0.00000     0.00000    -0.00000    -0.00001     0.00001