 vasp.5.4.4.18Apr17-6-g9f103f2a35 (build Aug 24 2017 11:22:49) complex

 executed on             LinuxIFC date 2023.12.25  13:07:46

 INCAR:
 POTCAR:    PAW_PBE Ar 07Sep2000

 POTCAR:    PAW_PBE Ar 07Sep2000
   VRHFIN =Ar: s2p6

   TITEL  = PAW_PBE Ar 07Sep2000
   POMASS =   39.949; ZVAL   =    8.000    mass and valenz
   ENMAX  =  266.408; ENMIN  =  199.806 eV

  PAW_PBE Ar 07Sep2000                  :

 POSCAR: Ar1
  positions in direct lattice
 exchange correlation table for  LEXCH =        8
   RHO(1)=    0.500       N(1)  =     2000
   RHO(2)=  100.500       N(2)  =     4000

 ion  position               nearest neighbor table
   1  0.000  0.000  0.000-

  LATTYP: Found a face centered cubic cell.
 ALAT       =     5.3631594354

  Lattice vectors:

 A1 = (  -2.6815797177,   0.0000000000,   2.6815797177)
 A2 = (   0.0000000000,   2.6815797177,   2.6815797177)
 A3 = (  -2.6815797177,   2.6815797177,   0.0000000000)

Analysis of symmetry for initial positions (statically):
 Subroutine PRICEL returns:
 Original cell was already a primitive cell.

 Routine SETGRP: Setting up the symmetry group for a
 face centered cubic supercell.

 Subroutine GETGRP returns: Found 48 space group operations
 (whereof 48 operations were pure point group operations)
 out of a pool of 48 trial point group operations.

The static configuration has the point symmetry O_h .

Analysis of symmetry for dynamics (positions and initial velocities):
 Subroutine PRICEL returns:
 Original cell was already a primitive cell.

[...]

The dynamic configuration has the point symmetry O_h .

 Subroutine INISYM returns: Found 48 space group operations
 (whereof 48 operations are pure point group operations),
 and found     1 'primitive' translations

 KPOINTS: pymatgen with grid density = 3000 / numb

Automatic generation of k-mesh.
Space group operators:
 irot       det(A)        alpha          n_x          n_y          n_z        tau_x        tau_y        tau_z
    1     1.000000     0.000000     1.000000     0.000000     0.000000     0.000000     0.000000     0.000000
    2    -1.000000     0.000000     1.000000     0.000000     0.000000     0.000000     0.000000     0.000000
    3     1.000000   120.000000     0.577350    -0.577350    -0.577350     0.000000     0.000000     0.000000
    4    -1.000000   120.000000     0.577350    -0.577350    -0.577350     0.000000     0.000000     0.000000
    5     1.000000   120.000000    -0.577350     0.577350     0.577350     0.000000     0.000000     0.000000
    6    -1.000000   120.000000    -0.577350     0.577350     0.577350     0.000000     0.000000     0.000000
    7     1.000000    90.000000     0.000000     0.000000    -1.000000     0.000000     0.000000     0.000000
    8    -1.000000    90.000000     0.000000     0.000000    -1.000000     0.000000     0.000000     0.000000
    9     1.000000   180.000000     0.707107     0.000000    -0.707107     0.000000     0.000000     0.000000
   10    -1.000000   180.000000     0.707107     0.000000    -0.707107     0.000000     0.000000     0.000000
   11     1.000000    90.000000    -1.000000    -0.000000    -0.000000     0.000000     0.000000     0.000000
   12    -1.000000    90.000000    -1.000000    -0.000000    -0.000000     0.000000     0.000000     0.000000
   13     1.000000   180.000000    -0.000000     0.000000    -1.000000     0.000000     0.000000     0.000000
   14    -1.000000   180.000000    -0.000000     0.000000    -1.000000     0.000000     0.000000     0.000000
   15     1.000000   120.000000    -0.577350    -0.577350     0.577350     0.000000     0.000000     0.000000
   16    -1.000000   120.000000    -0.577350    -0.577350     0.577350     0.000000     0.000000     0.000000
   17     1.000000   120.000000    -0.577350    -0.577350    -0.577350     0.000000     0.000000     0.000000
   18    -1.000000   120.000000    -0.577350    -0.577350    -0.577350     0.000000     0.000000     0.000000
   19     1.000000    90.000000    -0.000000     0.000000     1.000000     0.000000     0.000000     0.000000
   20    -1.000000    90.000000    -0.000000     0.000000     1.000000     0.000000     0.000000     0.000000
   21     1.000000    90.000000    -0.000000    -1.000000     0.000000     0.000000     0.000000     0.000000
   22    -1.000000    90.000000    -0.000000    -1.000000     0.000000     0.000000     0.000000     0.000000
   23     1.000000   180.000000    -0.000000     0.707107     0.707107     0.000000     0.000000     0.000000
   24    -1.000000   180.000000    -0.000000     0.707107     0.707107     0.000000     0.000000     0.000000
   25     1.000000   120.000000     0.577350     0.577350     0.577350     0.000000     0.000000     0.000000
   26    -1.000000   120.000000     0.577350     0.577350     0.577350     0.000000     0.000000     0.000000
   27     1.000000   120.000000     0.577350    -0.577350     0.577350     0.000000     0.000000     0.000000
   28    -1.000000   120.000000     0.577350    -0.577350     0.577350     0.000000     0.000000     0.000000
   29     1.000000   180.000000    -0.000000    -1.000000    -0.000000     0.000000     0.000000     0.000000
   30    -1.000000   180.000000    -0.000000    -1.000000    -0.000000     0.000000     0.000000     0.000000
   31     1.000000    90.000000     1.000000     0.000000    -0.000000     0.000000     0.000000     0.000000
   32    -1.000000    90.000000     1.000000     0.000000    -0.000000     0.000000     0.000000     0.000000
   33     1.000000   180.000000     0.707107    -0.707107     0.000000     0.000000     0.000000     0.000000
   34    -1.000000   180.000000     0.707107    -0.707107     0.000000     0.000000     0.000000     0.000000
   35     1.000000    90.000000     0.000000     1.000000     0.000000     0.000000     0.000000     0.000000
   36    -1.000000    90.000000     0.000000     1.000000     0.000000     0.000000     0.000000     0.000000
   37     1.000000   120.000000     0.577350     0.577350    -0.577350     0.000000     0.000000     0.000000
   38    -1.000000   120.000000     0.577350     0.577350    -0.577350     0.000000     0.000000     0.000000
   39     1.000000   180.000000     1.000000     0.000000     0.000000     0.000000     0.000000     0.000000
   40    -1.000000   180.000000     1.000000     0.000000     0.000000     0.000000     0.000000     0.000000
   41     1.000000   120.000000    -0.577350     0.577350    -0.577350     0.000000     0.000000     0.000000
   42    -1.000000   120.000000    -0.577350     0.577350    -0.577350     0.000000     0.000000     0.000000
   43     1.000000   180.000000     0.707107     0.000000     0.707107     0.000000     0.000000     0.000000
   44    -1.000000   180.000000     0.707107     0.000000     0.707107     0.000000     0.000000     0.000000
   45     1.000000   180.000000     0.707107     0.707107    -0.000000     0.000000     0.000000     0.000000
   46    -1.000000   180.000000     0.707107     0.707107    -0.000000     0.000000     0.000000     0.000000
   47     1.000000   180.000000     0.000000    -0.707107     0.707107     0.000000     0.000000     0.000000
   48    -1.000000   180.000000     0.000000    -0.707107     0.707107     0.000000     0.000000     0.000000

 Subroutine IBZKPT returns following result:

 Found    104 irreducible k-points:

 Following reciprocal coordinates:
            Coordinates               Weight
  0.000000  0.000000  0.000000      1.000000
  0.071429  0.000000  0.000000      8.000000
  0.142857 -0.000000 -0.000000      8.000000
  0.214286  0.000000  0.000000      8.000000
  0.285714  0.000000  0.000000      8.000000
  0.357143  0.000000  0.000000      8.000000
  0.428571  0.000000  0.000000      8.000000
  0.500000  0.000000  0.000000      4.000000
  0.071429  0.071429  0.000000      6.000000
  0.142857  0.071429  0.000000     24.000000
  0.214286  0.071429  0.000000     24.000000
  0.285714  0.071429  0.000000     24.000000
  0.357143  0.071429 -0.000000     24.000000
  0.428571  0.071429  0.000000     24.000000
  0.500000  0.071429  0.000000     24.000000
 -0.428571  0.071429  0.000000     24.000000
 -0.357143  0.071429 -0.000000     24.000000
 -0.285714  0.071429  0.000000     24.000000
 -0.214286  0.071429 -0.000000     24.000000
 -0.142857  0.071429 -0.000000     24.000000
 -0.071429  0.071429 -0.000000     12.000000
  0.142857  0.142857  0.000000      6.000000
  0.214286  0.142857  0.000000     24.000000
  0.285714  0.142857  0.000000     24.000000
  0.357143  0.142857 -0.000000     24.000000
  0.428571  0.142857  0.000000     24.000000
  0.500000  0.142857 -0.000000     24.000000
 -0.428571  0.142857  0.000000     24.000000
 -0.357143  0.142857 -0.000000     24.000000
 -0.285714  0.142857 -0.000000     24.000000
 -0.214286  0.142857 -0.000000     24.000000
 -0.142857  0.142857 -0.000000     12.000000
  0.214286  0.214286  0.000000      6.000000
  0.285714  0.214286  0.000000     24.000000
  0.357143  0.214286  0.000000     24.000000
  0.428571  0.214286  0.000000     24.000000
  0.500000  0.214286  0.000000     24.000000
 -0.428571  0.214286 -0.000000     24.000000
 -0.357143  0.214286 -0.000000     24.000000
 -0.285714  0.214286 -0.000000     24.000000
 -0.214286  0.214286 -0.000000     12.000000
  0.285714  0.285714  0.000000      6.000000
  0.357143  0.285714  0.000000     24.000000
  0.428571  0.285714  0.000000     24.000000
  0.500000  0.285714  0.000000     24.000000
 -0.428571  0.285714  0.000000     24.000000
 -0.357143  0.285714 -0.000000     24.000000
 -0.285714  0.285714 -0.000000     12.000000
  0.357143  0.357143  0.000000      6.000000
  0.428571  0.357143  0.000000     24.000000
  0.500000  0.357143  0.000000     24.000000
 -0.428571  0.357143 -0.000000     24.000000
 -0.357143  0.357143  0.000000     12.000000
  0.428571  0.428571  0.000000      6.000000
  0.500000  0.428571  0.000000     24.000000
 -0.428571  0.428571 -0.000000     12.000000
  0.500000  0.500000  0.000000      3.000000
  0.214286  0.142857  0.071429     24.000000
  0.285714  0.142857  0.071429     48.000000
  0.357143  0.142857  0.071429     48.000000
[...]
  0.500000  0.285714  0.142857     48.000000
 -0.428571  0.285714  0.142857     48.000000
 -0.357143  0.285714  0.142857     24.000000
  0.500000  0.357143  0.142857     24.000000
 -0.428571  0.357143  0.142857     48.000000
 -0.357143  0.357143  0.142857     48.000000
 -0.285714  0.357143  0.142857     48.000000
 -0.214286  0.357143  0.142857     24.000000
 -0.428571  0.428571  0.142857     24.000000
 -0.357143  0.428571  0.142857     48.000000
 -0.285714  0.428571  0.142857     24.000000
 -0.357143  0.500000  0.142857     12.000000
 -0.357143  0.428571  0.214286     24.000000
 -0.285714  0.428571  0.214286     24.000000
 -0.285714  0.500000  0.214286     12.000000

 Following cartesian coordinates:
            Coordinates               Weight
  0.000000  0.000000  0.000000      1.000000
 -0.013318 -0.013318  0.013318      8.000000
 -0.026637 -0.026637  0.026637      8.000000
 -0.039955 -0.039955  0.039955      8.000000
 -0.053274 -0.053274  0.053274      8.000000
 -0.066592 -0.066592  0.066592      8.000000
 -0.079910 -0.079910  0.079910      8.000000
[...]
  gives a total of   3375 points

 initial charge density was supplied:
 charge density of overlapping atoms calculated
 number of electron       8.0000000 magnetization
 keeping initial charge density in first step

 Maximum index for augmentation-charges         1219 (set IRDMAX)

 First call to EWALD:  gamma=   0.525
 Maximum number of real-space cells 3x 3x 3
 Maximum number of reciprocal cells 3x 3x 3

--------------------------------------- Iteration      1(   1)  ---------------------------------------

 eigenvalue-minimisations  :  1664
 total energy-change (2. order) : 0.3998224E+02  (-0.3572112E+03)
 number of electron       8.0000000 magnetization
 augmentation part        8.0000000 magnetization

 Free energy of the ion-electron system (eV)
  alpha Z        PSCENC =         3.83229515
  Ewald energy   TEWEN  =      -393.92325419
  -Hartree energ DENC   =      -142.91064238
  -exchange      EXHF   =         0.00000000
  -V(xc)+E(xc)   XCENC  =        29.18807150
  PAW double counting   =       464.39213177     -468.88429268
  entropy T*S    EENTRO =        -0.00004690
  eigenvalues    EBANDS =       -30.75643483
  atomic energy  EATOM  =       579.04441424
  Solvation  Ediel_sol  =         0.00000000
  free energy    TOTEN  =        39.98224168 eV

  energy without entropy =       39.98228859  energy(sigma->0) =       39.98226513

[...]

 eigenvalue-minimisations  :  2264
 total energy-change (2. order) :-0.3834120E+02  (-0.3680406E+02)
 number of electron       8.0000000 magnetization
 augmentation part        8.0000000 magnetization

[...]

 Broyden mixing:
  rms(total) = 0.41561E-02    rms(broyden)= 0.38655E-02
  rms(prec ) = 0.11781E-01
  weight for this iteration     100.00

[...]

 eigenvalues of (default mixing * dielectric matrix)
  average eigenvalue GAMMA=   1.5758
  1.5758

[...]

 eigenvalue-minimisations  :  2224
 total energy-change (2. order) :-0.3102048E-06  (-0.5776180E-09)
 number of electron       8.0000003 magnetization
 augmentation part       -0.6336140 magnetization

[...]

--------------------------------------- Iteration      1(  11)  ---------------------------------------

 eigenvalue-minimisations  :  1608
 total energy-change (2. order) : 0.8151346E-10  (-0.9016643E-11)
 number of electron       8.0000003 magnetization
 augmentation part       -0.6336140 magnetization

 Free energy of the ion-electron system (eV)
  alpha Z        PSCENC =         3.83229515
  Ewald energy   TEWEN  =      -393.92325419
  -Hartree energ DENC   =      -143.06254109
  -exchange      EXHF   =         0.00000000
  -V(xc)+E(xc)   XCENC  =        29.19937814
  PAW double counting   =       464.61666475     -469.11183999
  entropy T*S    EENTRO =        -0.00000000
  eigenvalues    EBANDS =       -70.62132309
  atomic energy  EATOM  =       579.04441424
  Solvation  Ediel_sol  =         0.00000000
  free energy    TOTEN  =        -0.02620608 eV

  energy without entropy =       -0.02620608  energy(sigma->0) =       -0.02620608

 average (electrostatic) potential at core
  the test charge radii are     0.8078
  (the norm of the test charge is              1.0000)
       1-150.9019

 E-fermi :  -4.7118     XC(G=0):  -6.5579     alpha+bet : -4.9047

 k-point     1 :       0.0000    0.0000    0.0000
  band No.  band energies     occupation
      1     -19.5085      2.00000
      2      -4.8433      2.00000
      3      -4.8433      2.00000
      4      -4.8433      2.00000
      5       3.7917      0.00000
      6      10.9962      0.00000
      7      10.9962      0.00000
      8      10.9962      0.00000

[...]

 soft charge-density along one line, spin component           1
         0         1         2         3         4         5         6         7         8         9
 total charge-density along one line

------------------------ aborting loop because EDIFF is reached ----------------------------------------

  FORCE on cell =-STRESS in cart. coord.  units (eV):
  Direction    XX          YY          ZZ          XY          YZ          ZX
  Alpha Z     3.83230     3.83230     3.83230
  Ewald    -131.30776  -131.30776  -131.30776    -0.00000    -0.00000     0.00000
  Hartree    47.68751    47.68751    47.68751    -0.00000     0.00000    -0.00000
  E(xc)     -31.03994   -31.03994   -31.03994    -0.00000     0.00000    -0.00000
  Local    -170.29755  -170.29755  -170.29755     0.00001    -0.00001     0.00001
  n-local   157.67258   157.32431   156.12501    -1.03903     0.63916     0.96937
  augment   -23.47710   -23.47710   -23.47710    -0.00001     0.00001    -0.00001
  Kinetic   148.76175   148.28804   146.07403    -1.89954     1.14919     1.72009
  Fock        0.00000     0.00000     0.00000     0.00000     0.00000     0.00000
  Total       0.14604     0.14604     0.14604     0.00000    -0.00000    -0.00000
  in kB       6.06716     6.06716     6.06716     0.00000    -0.00000    -0.00000

 VOLUME and BASIS-vectors are now :
  energy-cutoff  :      520.00
  volume of cell :       38.57
      direct lattice vectors                 reciprocal lattice vectors
    -2.681579718  0.000000000  2.681579718    -0.186457258 -0.186457258  0.186457258
     0.000000000  2.681579718  2.681579718     0.186457258  0.186457258  0.186457258
    -2.681579718  2.681579718  0.000000000    -0.186457258  0.186457258 -0.186457258

  length of vectors
     3.792326405  3.792326405  3.792326405     0.322953443  0.322953443  0.322953443

 FORCES acting on ions
    electron-ion (+dipol)            ewald-force                    non-local-force                 convergence-correction
   0.214E-14 -.362E-14 -.359E-14   0.108E-14 -.406E-16 -.603E-16   0.647E-26 -.582E-25 -.189E-24   0.141E-15 0.696E-17 -.459E-14
   0.214E-14 -.362E-14 -.359E-14   0.108E-14 -.406E-16 -.603E-16   0.647E-26 -.582E-25 -.189E-24   0.141E-15 0.696E-17 -.459E-14

 POSITION                                       TOTAL-FORCE (eV/Angst)
      0.00000      0.00000      0.00000         0.000000     -0.000000      0.000000
    total drift:                                0.000000     -0.000000     -0.000000

  FREE ENERGIE OF THE ION-ELECTRON SYSTEM (eV)
  free  energy   TOTEN  =        -0.02620608 eV

  energy  without entropy=       -0.02620608  energy(sigma->0) =       -0.02620608

 Found     1 degrees of freedom:

     directions for atom     1:  x
 Linear response reoptimize wavefunctions
 Linear response to external field (no local field effect), progress :
  Direction:   1
  LATTYP: Found a face centered cubic cell.
 ALAT       =     5.3631594354

[...]

The dynamic configuration has the point symmetry C_4v.

[...]

----------------------------------------- Iteration    1(   1)  ---------------------------------------

 Free energy of the ion-electron system (eV)
  -Hartree energ DENC   =         0.00000000
  -V(xc)+E(xc)   XCENC  =         0.00000000
  PAW double counting   =         0.00000000        0.00000000
  entropy T*S    EENTRO =         0.00000000
  eigenvalues    EBANDS =        -0.09858595
  free energy    TOTEN  =        -0.09858595 eV

  energy without entropy =       -0.09858595

[...]

 change of polarisation eV/A/(eV/A) component  1 :     0.201    -0.026     0.019
 dielectric tensor                  component  1 :     1.945    -0.121     0.089

 Linear response to external field (no local field effect), progress :
  Direction:   2
  LATTYP: Found a face centered cubic cell.
 ALAT       =     5.3631594354

[...]

 Linear response to external field (no local field effect), progress :
  Direction:   3
  LATTYP: Found a face centered cubic cell.
 ALAT       =     5.3631594354

[...]

 HEAD OF MICROSCOPIC STATIC DIELECTRIC TENSOR (INDEPENDENT PARTICLE, excluding Hartree and local field effects)
           1.885786    -0.000000     0.000000
          -0.000000     1.885786    -0.000000
           0.000000    -0.000000     1.885786

 Linear response to external field, progress :
  Direction:   1
  LATTYP: Found a face centered cubic cell.
 ALAT       =     5.3631594354

[...]

 PIEZOELECTRIC TENSOR FIELD DIRECTION 1  (e Angst)
     0.00003 -0.00000  0.00000           (  0.00000 -0.00000  0.00000)
    -0.00000  0.00002 -0.00000           ( -0.00000  0.00000 -0.00000)
     0.00000 -0.00000  0.00002           (  0.00000 -0.00000  0.00000)

 PIEZOELECTRIC TENSOR FIELD DIRECTION 1  (C/m^2)
     0.00001 -0.00000  0.00000
    -0.00000  0.00001 -0.00000
     0.00000 -0.00000  0.00001

      POSITION         DIRECTION 1           BORN EFFECTIVE CHARGE    (rigid.aug.   ionic)
      0.00000      0.00000      0.00000     0.00029 -0.00000  0.00000 (  0.63361  8.00000)
    total drift (improves with k-points):   0.00029 -0.00000  0.00000

[...]

 Linear response to external field, progress :
  Direction:   3
  LATTYP: Found a face centered cubic cell.
 ALAT       =     5.3631594354

[...]

 change of polarisation eV/A/(eV/A) component  3 :     0.019     0.018     0.149
 dielectric tensor                  component  3 :     0.091     0.084     1.699

 PIEZOELECTRIC TENSOR FIELD DIRECTION 3  (e Angst)
    -0.00003  0.00000  0.00000           ( -0.00000  0.00000 -0.00000)
     0.00000 -0.00003  0.00000           (  0.00000 -0.00000  0.00000)
     0.00000 -0.00000 -0.00003           (  0.00000  0.00000 -0.00000)

 PIEZOELECTRIC TENSOR FIELD DIRECTION 3  (C/m^2)
    -0.00001  0.00000  0.00000
     0.00000 -0.00001  0.00000
     0.00000 -0.00000 -0.00001

      POSITION         DIRECTION 3           BORN EFFECTIVE CHARGE    (rigid.aug.   ionic)
      0.00000      0.00000      0.00000    -0.00000 -0.00000  0.00030 (  0.63361  8.00000)
    total drift (improves with k-points):  -0.00000 -0.00000  0.00030

[...]

 MACROSCOPIC STATIC DIELECTRIC TENSOR (including local field effects in DFT)
           1.698589    -0.000000     0.000000
          -0.000000     1.698589    -0.000000
           0.000000    -0.000000     1.698589

 Linear response:
   Degrees of freedom DOF   =            1
 Linear response progress:
  Degree of freedom:   1/  1
  LATTYP: Found a face centered cubic cell.
 ALAT       =     5.3631594354

[...]

The dynamic configuration has the point symmetry C_4v.

[...]

 Broyden mixing:
  rms(total) = 0.27235E-01    rms(broyden)= 0.22551E-01
  rms(prec ) = 0.41878E-01
  weight for this iteration     100.00
  WARNING: grid for Broyden might be to small

[...]

----------------------------------------- Iteration    4(  12)  ---------------------------------------

 Broyden mixing:
  rms(total) = 0.95423E-06    rms(broyden)= 0.95407E-06
  rms(prec ) = 0.21556E-05
  weight for this iteration     100.00

 eigenvalues of (default mixing * dielectric matrix)
  average eigenvalue GAMMA=   1.6694
  3.0604  2.7067  2.5075  1.8954  1.2830  1.2830  0.9696  0.9776  1.0055  1.0055

 Free energy of the ion-electron system (eV)
  -Hartree energ DENC   =        -0.14157767
  -V(xc)+E(xc)   XCENC  =         0.00049819
  PAW double counting   =         0.00000000       -0.00000000
  entropy T*S    EENTRO =         0.00000000
  eigenvalues    EBANDS =        -0.14954042
  free energy    TOTEN  =        -0.29061990 eV

  energy without entropy =       -0.29061990

[...]

 k-point 244 :       0.5000    0.0000    0.5000
  band No.  band energies     occupation
      1      -0.0001      0.00000
      2      -0.0001      0.00000
      3      -0.0001      0.00000
      4      -0.0001      0.00000
      5      -0.0000      0.00000
      6      -0.0000      0.00000
      7      -0.0001      0.00000
      8       0.0001      0.00000

------------------------ aborting loop because EDIFF is reached ----------------------------------------

 INTERNAL STRAIN TENSOR  FOR ION    1  DIRECTION 1   (eV/Angst):
    -0.00043  0.00000  0.00000
    -0.00000 -0.00061 -0.00000
     0.00000  0.00000 -0.00061

 POSITION                   FORCE-CONSTANT FOR ION    1 DIRECTION 1 (eV/Angst/Angst)
      0.00000      0.00000      0.00000        -0.165708      0.000000     -0.000000
    total drift:                               -0.165708      0.000000     -0.000000

 BORN EFFECTIVE CHARGE FOR ION    1 DIRECTION 1 :   0.000   0.000  -0.000
                   rigid augmentation           :   0.634  -0.000   0.000
                   ionic contribution           :   8.000  -0.000   0.000
                   Berry contribution           :  -8.633   0.000  -0.000

  LATTYP: Found a face centered cubic cell.
 ALAT       =     5.3631594354

  Lattice vectors:

 A1 = (  -2.6815797177,   0.0000000000,   2.6815797177)
 A2 = (   0.0000000000,   2.6815797177,   2.6815797177)
 A3 = (  -2.6815797177,   2.6815797177,   0.0000000000)

Analysis of symmetry for initial positions (statically):
 Subroutine PRICEL returns:
 Original cell was already a primitive cell.

[...]

The static configuration has the point symmetry O_h .

Analysis of symmetry for dynamics (positions and initial velocities):
 Subroutine PRICEL returns:
 Original cell was already a primitive cell.

 Routine SETGRP: Setting up the symmetry group for a
 face centered cubic supercell.

 Subroutine GETGRP returns: Found 48 space group operations
 (whereof 48 operations were pure point group operations)
 out of a pool of 48 trial point group operations.

The dynamic configuration has the point symmetry O_h .

 Subroutine INISYM returns: Found 48 space group operations
 (whereof 48 operations are pure point group operations),
 and found     1 'primitive' translations

 MACROSCOPIC STATIC DIELECTRIC TENSOR (including local field effects in DFT)
           1.698589    -0.000000     0.000000
          -0.000000     1.698589    -0.000000
           0.000000    -0.000000     1.698589

 PIEZOELECTRIC TENSOR  for field in x, y, z        (e  Angst)
          XX          YY          ZZ          XY          YZ          ZX
  x     0.00003     0.00002     0.00002    -0.00000    -0.00000     0.00000
  y    -0.00003    -0.00002    -0.00003    -0.00000     0.00000     0.00000
  z    -0.00003    -0.00003    -0.00003     0.00000    -0.00000     0.00000

 PIEZOELECTRIC TENSOR  for field in x, y, z        (C/m^2)
          XX          YY          ZZ          XY          YZ          ZX
  x     0.00000     0.00000     0.00000     0.00000     0.00000     0.00000
  y     0.00000     0.00000     0.00000     0.00000     0.00000     0.00000
  z     0.00000     0.00000     0.00000     0.00000     0.00000     0.00000

 BORN EFFECTIVE CHARGES (in e, cummulative output)
 ion    1
    1     0.00000     0.00000     0.00000
    2     0.00000     0.00000     0.00000
    3     0.00000     0.00000     0.00000

 INTERNAL STRAIN TENSOR FOR ION    1 for displacements in x,y,z  (eV/Angst):
          X           Y           Z          XY          YZ          ZX
  x     0.00000     0.00000     0.00000     0.00000     0.00000     0.00000
  y     0.00000     0.00000     0.00000     0.00000     0.00000     0.00000
  z     0.00000     0.00000     0.00000     0.00000     0.00000     0.00000

 SECOND DERIVATIVES (NOT SYMMETRIZED)
               1X          1Y          1Z
  1X    -0.165708    0.000000   -0.000000
  1Y     0.000000   -0.165708    0.000000
  1Z    -0.000000    0.000000   -0.165708

 Eigenvectors and eigenvalues of the dynamical matrix

   1 f  =    1.006862 THz     6.326298 2PiTHz   33.585286 cm-1     4.164046 meV
             X         Y         Z           dx          dy          dz
      0.000000  0.000000  0.000000     0.894427    0.447214    0.000000

[...]

   3 f  =    1.006862 THz     6.326298 2PiTHz   33.585286 cm-1     4.164046 meV
             X         Y         Z           dx          dy          dz
      0.000000  0.000000  0.000000     0.000000    0.000000    1.000000

 MACROSCOPIC STATIC DIELECTRIC TENSOR IONIC CONTRIBUTION
           0.000000     0.000000     0.000000
           0.000000     0.000000     0.000000
           0.000000     0.000000     0.000000

 ELASTIC MODULI IONIC CONTR (kBar)
 Direction    XX          YY          ZZ          XY          YZ          ZX
 XX           0.0000      0.0000      0.0000      0.0000      0.0000      0.0000
 YY           0.0000      0.0000      0.0000      0.0000      0.0000      0.0000
 ZZ           0.0000      0.0000      0.0000      0.0000      0.0000      0.0000
 XY           0.0000      0.0000      0.0000      0.0000      0.0000      0.0000
 YZ           0.0000      0.0000      0.0000      0.0000      0.0000      0.0000
 ZX           0.0000      0.0000      0.0000      0.0000      0.0000      0.0000

 PIEZOELECTRIC TENSOR IONIC CONTR  for field in x, y, z        (C/m^2)
          XX          YY          ZZ          XY          YZ          ZX
  x     0.00000     0.00000     0.00000     0.00000     0.00000     0.00000
  y     0.00000     0.00000     0.00000     0.00000     0.00000     0.00000
  z     0.00000     0.00000     0.00000     0.00000     0.00000     0.00000