 vasp.5.4.4.18Apr17-6-g9f103f2a35 (build Aug 24 2017 11:22:49) complex

 executed on             LinuxIFC date 2023.12.25  13:07:49

 INCAR:
 POTCAR:    PAW_PBE Na_pv 19Sep2006
 POTCAR:    PAW_PBE I 08Apr2002

 POTCAR:    PAW_PBE Na_pv 19Sep2006
   VRHFIN =Na: p6s1

   TITEL  = PAW_PBE Na_pv 19Sep2006
   POMASS =   22.990; ZVAL   =    7.000    mass and valenz
   ENMAX  =  259.561; ENMIN  =  194.671 eV

 POTCAR:    PAW_PBE I 08Apr2002
   VRHFIN =I : s2p5

   TITEL  = PAW_PBE I 08Apr2002
   POMASS =  126.904; ZVAL   =    7.000    mass and valenz
   ENMAX  =  175.647; ENMIN  =  131.735 eV

  PAW_PBE Na_pv 19Sep2006               :
  PAW_PBE I 08Apr2002                   :

 POSCAR: Na1 I1
  positions in direct lattice
 exchange correlation table for  LEXCH =        8
   RHO(1)=    0.500       N(1)  =     2000
   RHO(2)=  100.500       N(2)  =     4000

 ion  position               nearest neighbor table
   1  0.000  0.000  0.000-
   2  0.500  0.500  0.500-

  LATTYP: Found a face centered cubic cell.
 ALAT       =     6.4373128782

  Lattice vectors:

 A1 = (  -3.2186564391,   0.0000000000,   3.2186564391)
 A2 = (   0.0000000000,   3.2186564391,   3.2186564391)
 A3 = (  -3.2186564391,   3.2186564391,   0.0000000000)

Analysis of symmetry for initial positions (statically):
 Subroutine PRICEL returns:
 Original cell was already a primitive cell.

 Routine SETGRP: Setting up the symmetry group for a
 face centered cubic supercell.

 Subroutine GETGRP returns: Found  8 space group operations
 (whereof  8 operations were pure point group operations)
 out of a pool of 48 trial point group operations.

The static configuration has the point symmetry C_4v.

Analysis of symmetry for dynamics (positions and initial velocities):
 Subroutine PRICEL returns:
 Original cell was already a primitive cell.

[...]

The dynamic configuration has the point symmetry C_4v.

 Subroutine INISYM returns: Found  8 space group operations
 (whereof  8 operations are pure point group operations),
 and found     1 'primitive' translations

 KPOINTS: pymatgen with grid density = 3000 / numb

Automatic generation of k-mesh.
Space group operators:
 irot       det(A)        alpha          n_x          n_y          n_z        tau_x        tau_y        tau_z
    1     1.000000     0.000000     1.000000     0.000000     0.000000     0.000000     0.000000     0.000000
    2     1.000000    90.000000    -1.000000    -0.000000     0.000000     0.000000     0.000000     0.000000
    3    -1.000000   180.000000     0.000000     0.000000     1.000000     0.000000     0.000000     0.000000
    4    -1.000000   180.000000    -0.000000     0.707107     0.707107     0.000000     0.000000     0.000000
    5    -1.000000   180.000000     0.000000    -1.000000     0.000000     0.000000     0.000000     0.000000
    6     1.000000    90.000000     1.000000     0.000000    -0.000000     0.000000     0.000000     0.000000
    7     1.000000   180.000000     1.000000     0.000000     0.000000     0.000000     0.000000     0.000000
    8    -1.000000   180.000000     0.000000    -0.707107     0.707107     0.000000     0.000000     0.000000

 Subroutine IBZKPT returns following result:

 Found    163 irreducible k-points:

 Following reciprocal coordinates:
            Coordinates               Weight
  0.000000  0.000000  0.000000      1.000000
  0.083333  0.000000  0.000000      8.000000
  0.166667  0.000000 -0.000000      8.000000
  0.250000  0.000000  0.000000      8.000000
  0.333333  0.000000  0.000000      8.000000
  0.416667 -0.000000  0.000000      8.000000
  0.500000  0.000000  0.000000      4.000000
  0.083333  0.083333  0.000000      4.000000
  0.166667  0.083333  0.000000     16.000000
  0.250000  0.083333  0.000000     16.000000
  0.333333  0.083333  0.000000     16.000000
  0.416667  0.083333 -0.000000     16.000000
  0.500000  0.083333  0.000000     16.000000
 -0.416667  0.083333 -0.000000     16.000000
 -0.333333  0.083333  0.000000     16.000000
 -0.250000  0.083333 -0.000000     16.000000
 -0.166667  0.083333 -0.000000     16.000000
 -0.083333  0.083333 -0.000000      8.000000
  0.166667  0.166667  0.000000      4.000000
  0.250000  0.166667  0.000000     16.000000
  0.333333  0.166667  0.000000     16.000000
  0.416667  0.166667  0.000000     16.000000
  0.500000  0.166667 -0.000000     16.000000
 -0.416667  0.166667 -0.000000     16.000000
 -0.333333  0.166667 -0.000000     16.000000
 -0.250000  0.166667  0.000000     16.000000
 -0.166667  0.166667  0.000000      8.000000
  0.250000  0.250000  0.000000      4.000000
  0.333333  0.250000  0.000000     16.000000
  0.416667  0.250000  0.000000     16.000000
  0.500000  0.250000  0.000000     16.000000
 -0.416667  0.250000  0.000000     16.000000
 -0.333333  0.250000 -0.000000     16.000000
 -0.250000  0.250000 -0.000000      8.000000
  0.333333  0.333333  0.000000      4.000000
  0.416667  0.333333  0.000000     16.000000
  0.500000  0.333333  0.000000     16.000000
 -0.416667  0.333333  0.000000     16.000000
 -0.333333  0.333333 -0.000000      8.000000
  0.416667  0.416667  0.000000      4.000000
  0.500000  0.416667  0.000000     16.000000
 -0.416667  0.416667  0.000000      8.000000
  0.500000  0.500000  0.000000      2.000000
  0.083333  0.000000  0.083333      2.000000
  0.166667  0.000000  0.083333      8.000000
  0.250000  0.000000  0.083333      8.000000
  0.333333  0.000000  0.083333      8.000000
  0.416667 -0.000000  0.083333      8.000000
  0.500000 -0.000000  0.083333      8.000000
 -0.416667 -0.000000  0.083333      8.000000
 -0.333333  0.000000  0.083333      8.000000
 -0.250000 -0.000000  0.083333      8.000000
 -0.166667 -0.000000  0.083333      8.000000
 -0.083333 -0.000000  0.083333      4.000000
  0.250000  0.166667  0.083333      8.000000
  0.333333  0.166667  0.083333     16.000000
  0.416667  0.166667  0.083333     16.000000
  0.500000  0.166667  0.083333     16.000000
 -0.416667  0.166667  0.083333      8.000000
  0.166667  0.250000  0.083333      8.000000
[...]
  0.333333 -0.083333  0.250000      8.000000
  0.333333  0.000000  0.333333      2.000000
  0.416667  0.000000  0.333333      8.000000
  0.500000  0.000000  0.333333      8.000000
 -0.416667  0.000000  0.333333      8.000000
 -0.333333  0.000000  0.333333      4.000000
  0.416667 -0.250000  0.333333      8.000000
  0.416667 -0.166667  0.333333     16.000000
  0.500000 -0.166667  0.333333      4.000000
  0.416667 -0.083333  0.333333      8.000000
  0.416667  0.000000  0.416667      2.000000
  0.500000  0.000000  0.416667      8.000000
 -0.416667  0.000000  0.416667      4.000000
  0.500000 -0.083333  0.416667      4.000000
  0.500000  0.000000  0.500000      1.000000

 Following cartesian coordinates:
            Coordinates               Weight
  0.000000  0.000000  0.000000      1.000000
 -0.012945 -0.012945  0.012945      8.000000
 -0.025891 -0.025891  0.025891      8.000000
 -0.038836 -0.038836  0.038836      8.000000
 -0.051781 -0.051781  0.051781      8.000000
 -0.064727 -0.064727  0.064727      8.000000
 -0.077672 -0.077672  0.077672      4.000000
  0.000000  0.000000  0.025891      4.000000
 -0.012945 -0.012945  0.038836     16.000000
 -0.025891 -0.025891  0.051781     16.000000
 -0.038836 -0.038836  0.064727     16.000000
 -0.051781 -0.051781  0.077672     16.000000
 -0.064727 -0.064727  0.090618     16.000000
  0.077672  0.077672 -0.051781     16.000000
  0.064727  0.064727 -0.038836     16.000000
  0.051781  0.051781 -0.025891     16.000000
  0.038836  0.038836 -0.012945     16.000000
  0.025891  0.025891  0.000000      8.000000
 -0.000000  0.000000  0.051781      4.000000
 -0.012945 -0.012945  0.064727     16.000000
 -0.025891 -0.025891  0.077672     16.000000
 -0.038836 -0.038836  0.090618     16.000000
 -0.051781 -0.051781  0.103563     16.000000
  0.090618  0.090618 -0.038836     16.000000
  0.077672  0.077672 -0.025891     16.000000
  0.064727  0.064727 -0.012945     16.000000
  0.051781  0.051781  0.000000      8.000000
  0.000000  0.000000  0.077672      4.000000
 -0.012945 -0.012945  0.090618     16.000000
 -0.025891 -0.025891  0.103563     16.000000
 -0.038836 -0.038836  0.116508     16.000000
  0.103563  0.103563 -0.025891     16.000000
  0.090618  0.090618 -0.012945     16.000000
  0.077672  0.077672  0.000000      8.000000
  0.000000  0.000000  0.103563      4.000000
 -0.012945 -0.012945  0.116508     16.000000
 -0.025891 -0.025891  0.129454     16.000000
  0.116508  0.116508 -0.012945     16.000000
  0.103563  0.103563  0.000000      8.000000
  0.000000  0.000000  0.129454      4.000000
 -0.012945 -0.012945  0.142399     16.000000
  0.129454  0.129454  0.000000      8.000000
  0.000000  0.000000  0.155344      2.000000
 -0.025891  0.000000  0.000000      2.000000
 -0.038836 -0.012945  0.012945      8.000000
 -0.051781 -0.025891  0.025891      8.000000
 -0.064727 -0.038836  0.038836      8.000000
 -0.077672 -0.051781  0.051781      8.000000
 -0.090618 -0.064727  0.064727      8.000000
  0.051781  0.077672 -0.077672      8.000000
  0.038836  0.064727 -0.064727      8.000000
  0.025891  0.051781 -0.051781      8.000000
  0.012945  0.038836 -0.038836      8.000000
 -0.000000  0.025891 -0.025891      4.000000
 -0.025891  0.000000  0.051781      8.000000
 -0.038836 -0.012945  0.064727     16.000000
 -0.051781 -0.025891  0.077672     16.000000
 -0.064727 -0.038836  0.090618     16.000000
  0.077672  0.103563 -0.051781      8.000000
 -0.000000  0.025891  0.051781      8.000000
[...]
 -0.103563 -0.025891  0.000000      8.000000
 -0.103563  0.000000  0.000000      2.000000
 -0.116508 -0.012945  0.012945      8.000000
 -0.129454 -0.025891  0.025891      8.000000
  0.012945  0.116508 -0.116508      8.000000
  0.000000  0.103563 -0.103563      4.000000
 -0.155344 -0.051781 -0.025891      8.000000
 -0.142399 -0.038836 -0.012945     16.000000
 -0.155344 -0.051781  0.000000      4.000000
 -0.129454 -0.025891  0.000000      8.000000
 -0.129454  0.000000  0.000000      2.000000
 -0.142399 -0.012945  0.012945      8.000000
  0.000000  0.129454 -0.129454      4.000000
 -0.155344 -0.025891  0.000000      4.000000
 -0.155344  0.000000  0.000000      1.000000

 Subroutine IBZKPT_HF returns following result:

 Found   1728 k-points in 1st BZ
 the following   1728 k-points will be used (e.g. in the exchange kernel)
 Following reciprocal coordinates:   # in IRBZ
  0.000000  0.000000  0.000000    0.00057870   1 t-inv F
  0.083333  0.000000  0.000000    0.00057870   2 t-inv F
  0.166667  0.000000 -0.000000    0.00057870   3 t-inv F
  0.250000  0.000000  0.000000    0.00057870   4 t-inv F
  0.333333  0.000000  0.000000    0.00057870   5 t-inv F
  0.416667 -0.000000  0.000000    0.00057870   6 t-inv F
  0.500000  0.000000  0.000000    0.00057870   7 t-inv F
  0.083333  0.083333  0.000000    0.00057870   8 t-inv F
  0.166667  0.083333  0.000000    0.00057870   9 t-inv F
  0.250000  0.083333  0.000000    0.00057870  10 t-inv F
  0.333333  0.083333  0.000000    0.00057870  11 t-inv F
  0.416667  0.083333 -0.000000    0.00057870  12 t-inv F
  0.500000  0.083333  0.000000    0.00057870  13 t-inv F
 -0.416667  0.083333 -0.000000    0.00057870  14 t-inv F
[...]
      9       8.8520      0.00000
     10       8.8520      0.00000
     11       8.8520      0.00000
     12      10.6974      0.00000
     13      10.6974      0.00000
     14      11.3695      0.00000
     15      12.5189      0.00000
     16      12.5189      0.00000

[...]

 soft charge-density along one line, spin component           1
         0         1         2         3         4         5         6         7         8         9
 total charge-density along one line

------------------------ aborting loop because EDIFF is reached ----------------------------------------

  FORCE on cell =-STRESS in cart. coord.  units (eV):
  Direction    XX          YY          ZZ          XY          YZ          ZX
  Alpha Z    13.13540    13.13540    13.13540
  Ewald    -207.32959  -207.32959  -207.32959    -0.00000     0.00000     0.00000
  Hartree    92.97293    92.97293    92.97293    -0.00000     0.00000    -0.00000
  E(xc)     -65.33749   -65.33749   -65.33749    -0.00001     0.00001    -0.00001
  Local     -80.28778   -80.28778   -80.28778     0.00002    -0.00002     0.00002
  n-local   117.80014   118.86132   116.73897    -2.35628     0.27356     0.96593
  augment     5.46896     5.46896     5.46896    -0.00001     0.00001    -0.00001
  Kinetic   123.87906   124.82011   122.93801    -2.40095     0.32192     0.88192
  Fock        0.00000     0.00000     0.00000     0.00000     0.00000     0.00000
  Total       0.30164     0.30164     0.30164     0.00000    -0.00000     0.00000
  in kB       7.24676     7.24676     7.24676     0.00000    -0.00000     0.00000

 VOLUME and BASIS-vectors are now :
  energy-cutoff  :      520.00
  volume of cell :       66.69
      direct lattice vectors                 reciprocal lattice vectors
    -3.218656439  0.000000000  3.218656439    -0.155344321 -0.155344321  0.155344321
     0.000000000  3.218656439  3.218656439     0.155344321  0.155344321  0.155344321
    -3.218656439  3.218656439  0.000000000    -0.155344321  0.155344321 -0.155344321

  length of vectors
     4.551867589  4.551867589  4.551867589     0.269064257  0.269064257  0.269064257

 FORCES acting on ions
    electron-ion (+dipol)            ewald-force                    non-local-force                 convergence-correction
   -.120E-04 -.105E-11 -.102E-11   0.110E-04 0.587E-15 -.690E-15   0.995E-06 -.150E-23 0.226E-23   0.222E-06 0.117E-10 0.117E-10
   0.101E-04 0.207E-12 -.351E-12   -.110E-04 -.359E-15 0.197E-15   0.549E-06 -.961E-24 0.639E-23   0.762E-07 0.807E-12 0.805E-12
   -.187E-05 -.847E-12 -.137E-11   0.431E-15 0.228E-15 -.493E-15   0.154E-05 -.246E-23 0.865E-23   0.298E-06 0.125E-10 0.125E-10

 POSITION                                       TOTAL-FORCE (eV/Angst)
      0.00000      0.00000      0.00000         0.000000      0.000000      0.000000
     -3.21866      3.21866      3.21866        -0.000000     -0.000000     -0.000000
    total drift:                               -0.000000      0.000000      0.000000

  FREE ENERGIE OF THE ION-ELECTRON SYSTEM (eV)
  free  energy   TOTEN  =        -5.38103510 eV

  energy  without entropy=       -5.38103510  energy(sigma->0) =       -5.38103510

 Found     4 degrees of freedom:

     directions for atom     1:  y
     directions for atom     2:  y
 Linear response reoptimize wavefunctions
 Linear response to external field (no local field effect), progress :
  Direction:   1
  LATTYP: Found a face centered cubic cell.
 ALAT       =     6.4373128782

[...]

----------------------------------------- Iteration    1(   1)  ---------------------------------------

 Free energy of the ion-electron system (eV)
  -Hartree energ DENC   =         0.00000000
  -V(xc)+E(xc)   XCENC  =         0.00000000
  PAW double counting   =         0.00000000        0.00000000
  entropy T*S    EENTRO =         0.00000000
  eigenvalues    EBANDS =        -0.48466161
  free energy    TOTEN  =        -0.48466161 eV

  energy without entropy =       -0.48466161

[...]

 change of polarisation eV/A/(eV/A) component  1 :     1.014    -0.268     0.084
 dielectric tensor                  component  1 :     3.753    -0.726     0.227

 Linear response to external field (no local field effect), progress :
  Direction:   2
  LATTYP: Found a face centered cubic cell.
 ALAT       =     6.4373128782

[...]

The dynamic configuration has the point symmetry C_1h.

[...]

 Linear response to external field (no local field effect), progress :
  Direction:   3
  LATTYP: Found a face centered cubic cell.
 ALAT       =     6.4373128782

[...]

 HEAD OF MICROSCOPIC STATIC DIELECTRIC TENSOR (INDEPENDENT PARTICLE, excluding Hartree and local field effects)
           3.752505    -0.000000     0.000000
          -0.000000     3.752466    -0.000000
           0.000000    -0.000000     3.752466

 Linear response to external field, progress :
  Direction:   1
  LATTYP: Found a face centered cubic cell.
 ALAT       =     6.4373128782

[...]

 PIEZOELECTRIC TENSOR FIELD DIRECTION 1  (e Angst)
     0.00013 -0.00000  0.00000           ( -0.00000  0.00000 -0.00000)
    -0.00000  0.00011 -0.00000           (  0.00000  0.00000  0.00000)
    -0.00000  0.00000  0.00011           ( -0.00000  0.00000  0.00000)

 PIEZOELECTRIC TENSOR FIELD DIRECTION 1  (C/m^2)
     0.00003 -0.00000  0.00000
    -0.00000  0.00003 -0.00000
    -0.00000  0.00000  0.00003

      POSITION         DIRECTION 1           BORN EFFECTIVE CHARGE    (rigid.aug.   ionic)
      0.00000      0.00000      0.00000     1.19136  0.00000  0.00000 ( -4.47560  7.00000)
     -3.21866      3.21866      3.21866    -1.19128  0.00000  0.00000 (  1.66408  7.00000)
    total drift (improves with k-points):   0.00008  0.00000  0.00000

[...]

 Linear response to external field, progress :
  Direction:   3
  LATTYP: Found a face centered cubic cell.
 ALAT       =     6.4373128782

[...]

 change of polarisation eV/A/(eV/A) component  3 :    -0.000     0.006     0.882
 dielectric tensor                  component  3 :    -0.000     0.017     3.394

 PIEZOELECTRIC TENSOR FIELD DIRECTION 3  (e Angst)
    -0.00002 -0.00000 -0.00012           ( -0.00000 -0.00000  0.00000)
     0.00000 -0.00006  0.00000           (  0.00000 -0.00000  0.00000)
    -0.00012  0.00000 -0.00000           (  0.00000  0.00000 -0.00000)

 PIEZOELECTRIC TENSOR FIELD DIRECTION 3  (C/m^2)
    -0.00000 -0.00000 -0.00003
     0.00000 -0.00002  0.00000
    -0.00003  0.00000 -0.00000

      POSITION         DIRECTION 3           BORN EFFECTIVE CHARGE    (rigid.aug.   ionic)
      0.00000      0.00000      0.00000    -0.00023  0.00000  1.19136 ( -4.47560  7.00000)
     -3.21866      3.21866      3.21866     0.00002 -0.00000 -1.19131 (  1.66408  7.00000)
    total drift (improves with k-points):  -0.00020 -0.00000  0.00005

[...]

 MACROSCOPIC STATIC DIELECTRIC TENSOR (including local field effects in DFT)
           3.394326    -0.000000     0.000000
          -0.000000     3.394262    -0.000000
           0.000000    -0.000000     3.394262

 Linear response:
   Degrees of freedom DOF   =            4
 Linear response progress:
  Degree of freedom:   1/  4
  LATTYP: Found a face centered cubic cell.
 ALAT       =     6.4373128782

[...]

 INTERNAL STRAIN TENSOR  FOR ION    1  DIRECTION 1   (eV/Angst):
     0.00017  0.00000  0.00000
     0.00000 -0.00005  0.00000
    -0.00000 -0.00000 -0.00005

 POSITION                   FORCE-CONSTANT FOR ION    1 DIRECTION 1 (eV/Angst/Angst)
      0.00000      0.00000      0.00000        -0.978298     -0.000000      0.000000
     -3.21866      3.21866      3.21866         0.978298      0.000000     -0.000000
    total drift:                                0.000000      0.000000      0.000000

 BORN EFFECTIVE CHARGE FOR ION    1 DIRECTION 1 :   1.191  -0.000   0.000
                   rigid augmentation           :  -4.476  -0.000   0.000
                   ionic contribution           :   7.000  -0.000   0.000
                   Berry contribution           :  -1.333   0.000  -0.000

 Linear response progress:
  Degree of freedom:   2/  4
  LATTYP: Found a face centered cubic cell.
 ALAT       =     6.4373128782

[...]

 Linear response progress:
  Degree of freedom:   4/  4
  LATTYP: Found a face centered cubic cell.
 ALAT       =     6.4373128782

[...]

The dynamic configuration has the point symmetry C_1h.

[...]

----------------------------------------- Iteration    8(  13)  ---------------------------------------

 Broyden mixing:
  rms(total) = 0.27559E-05    rms(broyden)= 0.27557E-05
  rms(prec ) = 0.30874E-05
  weight for this iteration     100.00

 eigenvalues of (default mixing * dielectric matrix)
  average eigenvalue GAMMA=   1.9212
  3.8587  3.1505  2.7330  2.5230  2.1532  1.7348  1.1286  1.0331  0.9809  0.9753
  0.8624

 Free energy of the ion-electron system (eV)
  -Hartree energ DENC   =        -0.04333656
  -V(xc)+E(xc)   XCENC  =         0.00022564
  PAW double counting   =         0.00001382       -0.00001399
  entropy T*S    EENTRO =        -0.00000000
  eigenvalues    EBANDS =        -0.04059193
  free energy    TOTEN  =        -0.08370301 eV

  energy without entropy =       -0.08370301

[...]

 k-point 476 :       0.0000   -0.5000   -0.5000
  band No.  band energies     occupation
      1      -0.0001      0.00000
      2      -0.0001      0.00000
      3      -0.0001      0.00000
      4       0.0002      0.00000
      5       0.0001      0.00000
      6       0.0001      0.00000
      7       0.0002      0.00000
      8       0.0000      0.00000
      9       0.0000      0.00000
     10       0.0002      0.00000
     11       0.0001      0.00000
     12       0.0001      0.00000
     13       0.0001      0.00000
     14       0.0001      0.00000
     15       0.0001      0.00000
     16       0.0001      0.00000

------------------------ aborting loop because EDIFF is reached ----------------------------------------

 INTERNAL STRAIN TENSOR  FOR ION    2  DIRECTION 2   (eV/Angst):
     0.00182 -0.00033  0.00000
    -0.00033  0.00024  0.00000
     0.00000  0.00000  0.00072

 POSITION                   FORCE-CONSTANT FOR ION    2 DIRECTION 2 (eV/Angst/Angst)
      0.00000      0.00000      0.00000        -0.000015      0.984007      0.000000
     -3.21866      3.21866      3.21866         0.000015     -0.984007     -0.000000
    total drift:                                0.000000      0.000000      0.000000

 BORN EFFECTIVE CHARGE FOR ION    2 DIRECTION 2 :  -0.000  -1.191   0.000
                   rigid augmentation           :  -0.000   1.664  -0.000
                   ionic contribution           :  -0.000   7.000  -0.000
                   Berry contribution           :  -0.000  -9.855   0.000

  LATTYP: Found a face centered cubic cell.
 ALAT       =     6.4373128782

  Lattice vectors:

 A1 = (  -3.2186564391,   0.0000000000,   3.2186564391)
 A2 = (   0.0000000000,   3.2186564391,   3.2186564391)
 A3 = (  -3.2186564391,   3.2186564391,   0.0000000000)

Analysis of symmetry for initial positions (statically):
 Subroutine PRICEL returns:
 Original cell was already a primitive cell.

[...]

The static configuration has the point symmetry C_4v.

Analysis of symmetry for dynamics (positions and initial velocities):
 Subroutine PRICEL returns:
 Original cell was already a primitive cell.

 Routine SETGRP: Setting up the symmetry group for a
 face centered cubic supercell.

 Subroutine GETGRP returns: Found  8 space group operations
 (whereof  8 operations were pure point group operations)
 out of a pool of 48 trial point group operations.

The dynamic configuration has the point symmetry C_4v.

 Subroutine INISYM returns: Found  8 space group operations
 (whereof  8 operations are pure point group operations),
 and found     1 'primitive' translations

 MACROSCOPIC STATIC DIELECTRIC TENSOR (including local field effects in DFT)
           3.394326    -0.000000     0.000000
          -0.000000     3.394262    -0.000000
           0.000000    -0.000000     3.394262

 PIEZOELECTRIC TENSOR  for field in x, y, z        (e  Angst)
          XX          YY          ZZ          XY          YZ          ZX
  x     0.00013     0.00011     0.00011    -0.00000     0.00000     0.00000
  y    -0.00020     0.00000    -0.00011     0.00007     0.00000     0.00000
  z    -0.00002    -0.00006    -0.00000     0.00000     0.00000    -0.00012

 PIEZOELECTRIC TENSOR  for field in x, y, z        (C/m^2)
          XX          YY          ZZ          XY          YZ          ZX
  x     0.00003     0.00003     0.00003    -0.00000    -0.00000     0.00000
  y    -0.00000    -0.00000    -0.00000    -0.00001    -0.00000     0.00000
  z     0.00000    -0.00000     0.00000     0.00000     0.00000    -0.00001

 BORN EFFECTIVE CHARGES (in e, cummulative output)
 ion    1
    1     1.19132    -0.00000    -0.00000
    2     0.00006     1.19133     0.00000
    3    -0.00012     0.00000     1.19133
 ion    2
    1    -1.19132     0.00000     0.00000
    2    -0.00006    -1.19133    -0.00000
    3     0.00012    -0.00000    -1.19133

 INTERNAL STRAIN TENSOR FOR ION    1 for displacements in x,y,z  (eV/Angst):
          X           Y           Z          XY          YZ          ZX
  x     0.00017    -0.00005    -0.00005     0.00000     0.00000    -0.00000
  y     0.00000     0.00000     0.00000    -0.00033    -0.00000     0.00000
  z    -0.00000     0.00000     0.00000     0.00000     0.00000    -0.00030

 INTERNAL STRAIN TENSOR FOR ION    2 for displacements in x,y,z  (eV/Angst):
          X           Y           Z          XY          YZ          ZX
  x    -0.00074    -0.00091    -0.00091     0.00000     0.00000    -0.00000
  y     0.00000     0.00000     0.00000    -0.00033    -0.00000     0.00000
  z     0.00000     0.00000    -0.00000     0.00000     0.00000    -0.00033

 SECOND DERIVATIVES (NOT SYMMETRIZED)
               1X          1Y          1Z          2X          2Y          2Z
  1X    -0.978298    0.000000   -0.000000    0.978298   -0.000000    0.000000
  1Y     0.000000   -0.978250    0.000000   -0.000000    0.978250   -0.000000
  1Z    -0.000000    0.000000   -0.978250    0.000000   -0.000000    0.978250
  2X     0.984005   -0.000000    0.000000   -0.984005    0.000000   -0.000000
  2Y    -0.000000    0.984007   -0.000000    0.000000   -0.984007    0.000000
  2Z     0.000000   -0.000000    0.984007   -0.000000    0.000000   -0.984007

 Eigenvectors and eigenvalues of the dynamical matrix

   1 f  =    3.506435 THz    22.031580 2PiTHz  116.962075 cm-1    14.501454 meV
             X         Y         Z           dx          dy          dz
      0.000000  0.000000  0.000000    -0.919710    0.000000    0.000000
     -3.218656  3.218656  3.218656     0.392597   -0.000000   -0.000000

[...]

   3 f  =    3.506363 THz    22.031128 2PiTHz  116.959675 cm-1    14.501157 meV
             X         Y         Z           dx          dy          dz
      0.000000  0.000000  0.000000     0.000000   -0.000000    0.919707
     -3.218656  3.218656  3.218656    -0.000000    0.000000   -0.392606

   4 f/i=    0.003682 THz     0.023136 2PiTHz    0.122824 cm-1     0.015228 meV
             X         Y         Z           dx          dy          dz
      0.000000  0.000000  0.000000     0.392597    0.000000   -0.000000
     -3.218656  3.218656  3.218656     0.919710    0.000000   -0.000000

[...]

   6 f/i=    0.003714 THz     0.023337 2PiTHz    0.123891 cm-1     0.015361 meV
             X         Y         Z           dx          dy          dz
      0.000000  0.000000  0.000000    -0.000000    0.389881   -0.046173
     -3.218656  3.218656  3.218656    -0.000000    0.913324   -0.108163

 MACROSCOPIC STATIC DIELECTRIC TENSOR IONIC CONTRIBUTION
           3.924906     0.000190    -0.000411
           0.000190     3.925054    -0.000000
          -0.000411    -0.000000     3.925094

 ELASTIC MODULI IONIC CONTR (kBar)
 Direction    XX          YY          ZZ          XY          YZ          ZX
 XX          -0.0000     -0.0000     -0.0000     -0.0000      0.0000     -0.0000
 YY          -0.0000     -0.0000     -0.0000     -0.0000      0.0000     -0.0000
 ZZ          -0.0000     -0.0000     -0.0000     -0.0000      0.0000     -0.0000
 XY          -0.0000     -0.0000     -0.0000     -0.0000      0.0000      0.0000
 YZ           0.0000      0.0000      0.0000      0.0000     -0.0000     -0.0000
 ZX          -0.0000     -0.0000     -0.0000      0.0000     -0.0000     -0.0000

 PIEZOELECTRIC TENSOR IONIC CONTR  for field in x, y, z        (C/m^2)
          XX          YY          ZZ          XY          YZ          ZX
  x     0.00013     0.00013     0.00013     0.00000    -0.00000     0.00000
  y     0.00000     0.00000     0.00000    -0.00000     0.00000     0.00000
  z    -0.00000    -0.00000    -0.00000    -0.00000     0.00000     0.00000