 vasp.5.4.4.18Apr17-6-g9f103f2a35 (build Aug 24 2017 11:22:49) complex

 executed on             LinuxIFC date 2023.12.25  13:07:11

 INCAR:
 POTCAR:    PAW_PBE Al 04Jan2001
 POTCAR:    PAW_PBE N 08Apr2002

 POTCAR:    PAW_PBE Al 04Jan2001
   VRHFIN =Al: s2p1

   TITEL  = PAW_PBE Al 04Jan2001
   POMASS =   26.981; ZVAL   =    3.000    mass and valenz
   ENMAX  =  240.300; ENMIN  =  180.225 eV

 POTCAR:    PAW_PBE N 08Apr2002
   VRHFIN =N: s2p3

   TITEL  = PAW_PBE N 08Apr2002
   POMASS =   14.001; ZVAL   =    5.000    mass and valenz
   ENMAX  =  400.000; ENMIN  =  300.000 eV

  PAW_PBE Al 04Jan2001                  :
  PAW_PBE N 08Apr2002                   :

 POSCAR: Al2 N2
  positions in direct lattice
 exchange correlation table for  LEXCH =        8
   RHO(1)=    0.500       N(1)  =     2000
   RHO(2)=  100.500       N(2)  =     4000

 ion  position               nearest neighbor table
   1  0.333  0.667  0.499-   4 1.90   4 1.90   4 1.90   3 1.91   2 3.09   2 3.09   2 3.09   2 3.09
                             2 3.09   2 3.09
   2  0.667  0.333  0.999-   3 1.90   3 1.90   3 1.90   4 1.91   1 3.09   1 3.09   1 3.09   1 3.09
                             1 3.09   1 3.09
   3  0.333  0.667  0.881-   2 1.90   2 1.90   2 1.90   1 1.91
   4  0.667  0.333  0.381-   1 1.90   1 1.90   1 1.90   2 1.91

  LATTYP: Found a hexagonal cell.
 ALAT       =     3.1285878957
 C/A-ratio  =     1.6035843588

  Lattice vectors:

 A1 = (   3.1285878957,   0.0000000000,   0.0000000000)
 A2 = (  -1.5642939478,   2.7094365956,   0.0000000000)
 A3 = (   0.0000000000,   0.0000000000,   5.0169546146)

Analysis of symmetry for initial positions (statically):
 Subroutine PRICEL returns:
 Original cell was already a primitive cell.

 Routine SETGRP: Setting up the symmetry group for a
 hexagonal supercell.

 Subroutine GETGRP returns: Found  2 space group operations
 (whereof  1 operations were pure point group operations)
 out of a pool of 24 trial point group operations.

The static configuration has the point symmetry C_1 .
 The point group associated with its full space group is C_1h.

Analysis of symmetry for dynamics (positions and initial velocities):
 Subroutine PRICEL returns:
 Original cell was already a primitive cell.

[...]

The dynamic configuration has the point symmetry C_1 .
 The point group associated with its full space group is C_1h.

 Subroutine INISYM returns: Found  2 space group operations
 (whereof  1 operations are pure point group operations),
 and found     1 'primitive' translations

 KPOINTS: pymatgen with grid density = 3000 / numb

Automatic generation of k-mesh.
Space group operators:
 irot       det(A)        alpha          n_x          n_y          n_z        tau_x        tau_y        tau_z
    1     1.000000     0.000000     1.000000     0.000000     0.000000     0.000000     0.000000     0.000000
    2    -1.000000   180.000000     1.000000     0.000000     0.000000     0.000000     0.000000     0.000000

 Subroutine IBZKPT returns following result:

 Found    172 irreducible k-points:

 Following reciprocal coordinates:
            Coordinates               Weight
  0.000000  0.000000  0.000000      1.000000
  0.100000  0.000000  0.000000      4.000000
  0.200000  0.000000  0.000000      4.000000
  0.300000  0.000000  0.000000      4.000000
  0.400000  0.000000  0.000000      4.000000
  0.500000  0.000000  0.000000      2.000000
  0.000000  0.100000  0.000000      2.000000
  0.100000  0.100000  0.000000      4.000000
  0.200000  0.100000  0.000000      4.000000
  0.300000  0.100000  0.000000      4.000000
  0.400000  0.100000  0.000000      4.000000
  0.500000  0.100000  0.000000      4.000000
 -0.400000  0.100000  0.000000      4.000000
 -0.300000  0.100000  0.000000      4.000000
 -0.200000  0.100000  0.000000      2.000000
  0.000000  0.200000  0.000000      2.000000
  0.100000  0.200000  0.000000      4.000000
  0.200000  0.200000  0.000000      4.000000
  0.300000  0.200000  0.000000      4.000000
  0.400000  0.200000  0.000000      4.000000
  0.500000  0.200000  0.000000      4.000000
 -0.400000  0.200000  0.000000      2.000000
  0.000000  0.300000  0.000000      2.000000
  0.100000  0.300000  0.000000      4.000000
  0.200000  0.300000  0.000000      4.000000
  0.300000  0.300000  0.000000      4.000000
  0.400000  0.300000  0.000000      2.000000
  0.000000  0.400000  0.000000      2.000000
  0.100000  0.400000  0.000000      4.000000
  0.200000  0.400000  0.000000      2.000000
  0.000000  0.500000  0.000000      1.000000
  0.000000  0.000000  0.166667      2.000000
  0.100000  0.000000  0.166667      4.000000
  0.200000  0.000000  0.166667      4.000000
  0.300000  0.000000  0.166667      4.000000
  0.400000  0.000000  0.166667      4.000000
  0.500000  0.000000  0.166667      4.000000
 -0.400000 -0.000000  0.166667      4.000000
 -0.300000 -0.000000  0.166667      4.000000
 -0.200000 -0.000000  0.166667      4.000000
 -0.100000 -0.000000  0.166667      4.000000
  0.000000  0.100000  0.166667      2.000000
  0.100000  0.100000  0.166667      4.000000
  0.200000  0.100000  0.166667      4.000000
  0.300000  0.100000  0.166667      4.000000
  0.400000  0.100000  0.166667      4.000000
  0.500000  0.100000  0.166667      4.000000
 -0.400000  0.100000  0.166667      4.000000
 -0.300000  0.100000  0.166667      4.000000
 -0.200000  0.100000  0.166667      4.000000
  0.000000  0.200000  0.166667      2.000000
  0.100000  0.200000  0.166667      4.000000
  0.200000  0.200000  0.166667      4.000000
  0.300000  0.200000  0.166667      4.000000
  0.400000  0.200000  0.166667      4.000000
  0.500000  0.200000  0.166667      4.000000
 -0.400000  0.200000  0.166667      4.000000
 -0.300000  0.200000  0.166667      4.000000
  0.000000  0.300000  0.166667      2.000000
  0.100000  0.300000  0.166667      4.000000
[...]
  0.100000  0.200000  0.500000      4.000000
  0.200000  0.200000  0.500000      4.000000
  0.300000  0.200000  0.500000      4.000000
  0.400000  0.200000  0.500000      4.000000
  0.500000  0.200000  0.500000      4.000000
 -0.400000  0.200000  0.500000      2.000000
  0.000000  0.300000  0.500000      2.000000
  0.100000  0.300000  0.500000      4.000000
  0.200000  0.300000  0.500000      4.000000
  0.300000  0.300000  0.500000      4.000000
  0.400000  0.300000  0.500000      2.000000
  0.000000  0.400000  0.500000      2.000000
  0.100000  0.400000  0.500000      4.000000
  0.200000  0.400000  0.500000      2.000000
  0.000000  0.500000  0.500000      1.000000

 Following cartesian coordinates:
            Coordinates               Weight
  0.000000  0.000000  0.000000      1.000000
  0.031963  0.018454  0.000000      4.000000
  0.063927  0.036908  0.000000      4.000000
  0.095890  0.055362  0.000000      4.000000
  0.127853  0.073816  0.000000      4.000000
  0.159817  0.092270  0.000000      2.000000
  0.000000  0.036908  0.000000      2.000000
  0.031963  0.055362  0.000000      4.000000
  0.063927  0.073816  0.000000      4.000000
  0.095890  0.092270  0.000000      4.000000
  0.127853  0.110724  0.000000      4.000000
  0.159817  0.129178  0.000000      4.000000
 -0.127853 -0.036908  0.000000      4.000000
 -0.095890 -0.018454  0.000000      4.000000
 -0.063927 -0.000000  0.000000      2.000000
  0.000000  0.073816  0.000000      2.000000
  0.031963  0.092270  0.000000      4.000000
  0.063927  0.110724  0.000000      4.000000
  0.095890  0.129178  0.000000      4.000000
  0.127853  0.147632  0.000000      4.000000
  0.159817  0.166086  0.000000      4.000000
 -0.127853  0.000000  0.000000      2.000000
  0.000000  0.110724  0.000000      2.000000
  0.031963  0.129178  0.000000      4.000000
  0.063927  0.147632  0.000000      4.000000
  0.095890  0.166086  0.000000      4.000000
  0.127853  0.184540  0.000000      2.000000
  0.000000  0.147632  0.000000      2.000000
  0.031963  0.166086  0.000000      4.000000
  0.063927  0.184540  0.000000      2.000000
  0.000000  0.184540  0.000000      1.000000
  0.000000  0.000000  0.033221      2.000000
  0.031963  0.018454  0.033221      4.000000
  0.063927  0.036908  0.033221      4.000000
  0.095890  0.055362  0.033221      4.000000
  0.127853  0.073816  0.033221      4.000000
  0.159817  0.092270  0.033221      4.000000
 -0.127853 -0.073816  0.033221      4.000000
 -0.095890 -0.055362  0.033221      4.000000
 -0.063927 -0.036908  0.033221      4.000000
 -0.031963 -0.018454  0.033221      4.000000
  0.000000  0.036908  0.033221      2.000000
  0.031963  0.055362  0.033221      4.000000
  0.063927  0.073816  0.033221      4.000000
  0.095890  0.092270  0.033221      4.000000
  0.127853  0.110724  0.033221      4.000000
  0.159817  0.129178  0.033221      4.000000
 -0.127853 -0.036908  0.033221      4.000000
 -0.095890 -0.018454  0.033221      4.000000
 -0.063927 -0.000000  0.033221      4.000000
  0.000000  0.073816  0.033221      2.000000
  0.031963  0.092270  0.033221      4.000000
  0.063927  0.110724  0.033221      4.000000
  0.095890  0.129178  0.033221      4.000000
  0.127853  0.147632  0.033221      4.000000
  0.159817  0.166086  0.033221      4.000000
 -0.127853  0.000000  0.033221      4.000000
 -0.095890  0.018454  0.033221      4.000000
  0.000000  0.110724  0.033221      2.000000
  0.031963  0.129178  0.033221      4.000000
[...]
  0.031963  0.092270  0.099662      4.000000
  0.063927  0.110724  0.099662      4.000000
  0.095890  0.129178  0.099662      4.000000
  0.127853  0.147632  0.099662      4.000000
  0.159817  0.166086  0.099662      4.000000
 -0.127853  0.000000  0.099662      2.000000
  0.000000  0.110724  0.099662      2.000000
  0.031963  0.129178  0.099662      4.000000
  0.063927  0.147632  0.099662      4.000000
  0.095890  0.166086  0.099662      4.000000
  0.127853  0.184540  0.099662      2.000000
  0.000000  0.147632  0.099662      2.000000
  0.031963  0.166086  0.099662      4.000000
  0.063927  0.184540  0.099662      2.000000
  0.000000  0.184540  0.099662      1.000000

 Subroutine IBZKPT_HF returns following result:

 Found    600 k-points in 1st BZ
 the following    600 k-points will be used (e.g. in the exchange kernel)
 Following reciprocal coordinates:   # in IRBZ
  0.000000  0.000000  0.000000    0.00166667   1 t-inv F
  0.100000  0.000000  0.000000    0.00166667   2 t-inv F
  0.200000  0.000000  0.000000    0.00166667   3 t-inv F
  0.300000  0.000000  0.000000    0.00166667   4 t-inv F
  0.400000  0.000000  0.000000    0.00166667   5 t-inv F
  0.500000  0.000000  0.000000    0.00166667   6 t-inv F
  0.000000  0.100000  0.000000    0.00166667   7 t-inv F
  0.100000  0.100000  0.000000    0.00166667   8 t-inv F
  0.200000  0.100000  0.000000    0.00166667   9 t-inv F
  0.300000  0.100000  0.000000    0.00166667  10 t-inv F
  0.400000  0.100000  0.000000    0.00166667  11 t-inv F
  0.500000  0.100000  0.000000    0.00166667  12 t-inv F
 -0.400000  0.100000  0.000000    0.00166667  13 t-inv F
 -0.300000  0.100000  0.000000    0.00166667  14 t-inv F
 -0.200000  0.100000  0.000000    0.00166667  15 t-inv F
  0.000000  0.200000  0.000000    0.00166667  16 t-inv F
  0.100000  0.200000  0.000000    0.00166667  17 t-inv F
[...]
 Linear response reoptimize wavefunctions
 Linear response to external field (no local field effect), progress :
  Direction:   1
  LATTYP: Found a hexagonal cell.
 ALAT       =     3.1285878957
 C/A-ratio  =     1.6035843588

[...]

The dynamic configuration has the point symmetry C_1 .

[...]

----------------------------------------- Iteration    1(   1)  ---------------------------------------

 Free energy of the ion-electron system (eV)
  -Hartree energ DENC   =         0.00000000
  -V(xc)+E(xc)   XCENC  =         0.00000000
  PAW double counting   =         0.00000000        0.00000000
  entropy T*S    EENTRO =         0.00000000
  eigenvalues    EBANDS =        -0.41390912
  free energy    TOTEN  =        -0.41390912 eV

  energy without entropy =       -0.41390912

[...]

 change of polarisation eV/A/(eV/A) component  1 :     0.848    -0.109    -0.000
 dielectric tensor                  component  1 :     4.609    -0.466    -0.000

 Linear response to external field (no local field effect), progress :
  Direction:   2
  LATTYP: Found a hexagonal cell.
 ALAT       =     3.1285878957
 C/A-ratio  =     1.6035843588

[...]

 Linear response to external field (no local field effect), progress :
  Direction:   3
  LATTYP: Found a hexagonal cell.
 ALAT       =     3.1285878957
 C/A-ratio  =     1.6035843588

[...]

 HEAD OF MICROSCOPIC STATIC DIELECTRIC TENSOR (INDEPENDENT PARTICLE, excluding Hartree and local field effects)
           4.608916    -0.000000     0.000000
          -0.000000     4.607628    -0.000001
           0.000000    -0.000004     4.812708

 Linear response to external field, progress :
  Direction:   1
  LATTYP: Found a hexagonal cell.
 ALAT       =     3.1285878957
 C/A-ratio  =     1.6035843588

[...]

 PIEZOELECTRIC TENSOR FIELD DIRECTION 1  (e Angst)
    -0.00000  0.00006  0.90646           ( -0.00000  0.00000  0.00501)
     0.00006 -0.00001  0.00000           (  0.00000 -0.00000 -0.00000)
     0.90646  0.00000  0.00002           (  0.00501 -0.00000 -0.00000)

 PIEZOELECTRIC TENSOR FIELD DIRECTION 1  (C/m^2)
    -0.00000  0.00002  0.34150
     0.00002 -0.00000  0.00000
     0.34150  0.00000  0.00001

      POSITION         DIRECTION 1           BORN EFFECTIVE CHARGE    (rigid.aug.   ionic)
      0.00000      1.80629      2.50490     2.51967  0.00001  0.00003 (  0.02558  3.00000)
      1.56429      0.90315      5.01338     2.51965 -0.00001 -0.00003 (  0.02558  3.00000)
      0.00000      1.80629      4.41850    -2.51976 -0.00012 -0.00001 ( -0.22716  5.00000)
      1.56429      0.90315      1.91002    -2.51980 -0.00013  0.00003 ( -0.22716  5.00000)
    total drift (improves with k-points):  -0.00023 -0.00025  0.00001

[...]

 Linear response to external field, progress :
  Direction:   3
  LATTYP: Found a hexagonal cell.
 ALAT       =     3.1285878957
 C/A-ratio  =     1.6035843588

[...]

 change of polarisation eV/A/(eV/A) component  3 :     0.000    -0.000     0.866
 dielectric tensor                  component  3 :     0.000    -0.000     4.684

 PIEZOELECTRIC TENSOR FIELD DIRECTION 3  (e Angst)
     0.71928 -0.00000  0.00000           (  0.00453 -0.00000  0.00000)
    -0.00000  0.71928  0.00005           ( -0.00000  0.00453 -0.00000)
     0.00000  0.00005 -1.12735           (  0.00000 -0.00000 -0.00459)

 PIEZOELECTRIC TENSOR FIELD DIRECTION 3  (C/m^2)
     0.27098 -0.00000  0.00000
    -0.00000  0.27098  0.00002
     0.00000  0.00002 -0.42472

      POSITION         DIRECTION 3           BORN EFFECTIVE CHARGE    (rigid.aug.   ionic)
      0.00000      1.80629      2.50490    -0.00000  0.00000  2.67900 (  0.02558  3.00000)
      1.56429      0.90315      5.01338     0.00000  0.00000  2.67900 (  0.02558  3.00000)
      0.00000      1.80629      4.41850    -0.00000 -0.00000 -2.67897 ( -0.22716  5.00000)
      1.56429      0.90315      1.91002    -0.00000 -0.00000 -2.67897 ( -0.22716  5.00000)
    total drift (improves with k-points):  -0.00000  0.00000  0.00006

[...]

 MACROSCOPIC STATIC DIELECTRIC TENSOR (including local field effects in DFT)
           4.464676    -0.000000     0.000000
          -0.000000     4.463358    -0.000002
           0.000000    -0.000004     4.684487

 Linear response:
   Degrees of freedom DOF   =           12
 Linear response progress:
  Degree of freedom:   1/ 12
  LATTYP: Found a hexagonal cell.
 ALAT       =     3.1285878957
 C/A-ratio  =     1.6035843588

[...]

 INTERNAL STRAIN TENSOR  FOR ION    1  DIRECTION 1   (eV/Angst):
     0.00008 -8.14906 -4.81275
    -7.65958 -0.00009  0.00010
    -4.65525  0.00010  0.00002

 POSITION                   FORCE-CONSTANT FOR ION    1 DIRECTION 1 (eV/Angst/Angst)
      0.00000      1.80629      2.50490       -14.939781      0.000039     -0.000007
      1.56429      0.90315      5.01338         0.643355      0.000015      0.000001
      0.00000      1.80629      4.41850         1.485176      0.000055      0.000003
      1.56429      0.90315      1.91002        12.811251     -0.000109      0.000003
    total drift:                                0.000000      0.000000     -0.000000

 BORN EFFECTIVE CHARGE FOR ION    1 DIRECTION 1 :   2.520   0.000  -0.000
                   rigid augmentation           :   0.026   0.000   0.000
                   ionic contribution           :   3.000   0.000   0.000
                   Berry contribution           :  -0.506   0.000  -0.000

 Linear response progress:
  Degree of freedom:   2/ 12
  LATTYP: Found a hexagonal cell.
 ALAT       =     3.1285878957
 C/A-ratio  =     1.6035843588

[...]

The dynamic configuration has the point symmetry C_1 .

[...]

 Linear response progress:
  Degree of freedom:  12/ 12
  LATTYP: Found a hexagonal cell.
 ALAT       =     3.1285878957
 C/A-ratio  =     1.6035843588

[...]

----------------------------------------- Iteration   15(  12)  ---------------------------------------

 Broyden mixing:
  rms(total) = 0.56704E-05    rms(broyden)= 0.56704E-05
  rms(prec ) = 0.84368E-05
  weight for this iteration     100.00

 eigenvalues of (default mixing * dielectric matrix)
  average eigenvalue GAMMA=   1.7642
  3.0319  2.7045  2.4108  2.2280  1.8070  1.4985  0.9072  1.0033  1.0255  1.0255

 Free energy of the ion-electron system (eV)
  -Hartree energ DENC   =        -0.08899405
  -V(xc)+E(xc)   XCENC  =         0.00033334
  PAW double counting   =         0.04607425       -0.04608070
  entropy T*S    EENTRO =        -0.00000000
  eigenvalues    EBANDS =        -0.16492895
  free energy    TOTEN  =        -0.25359611 eV

  energy without entropy =       -0.25359611

[...]

 k-point 172 :       0.0000    0.5000    0.5000
  band No.  band energies     occupation
      1      -0.4132      0.00000
      2       0.4476      0.00000
      3      -0.6504      0.00000
      4       0.3751      0.00000
      5      -1.6213      0.00000
      6       0.5422      0.00000
      7      -0.1134      0.00000
      8       1.6486      0.00000
      9      -0.6591      0.00000
     10       1.4535      0.00000
     11      -2.1412      0.00000
     12       0.5802      0.00000
     13      -3.7610      0.00000
     14       3.5479      0.00000
     15      -3.9262      0.00000
     16       5.0367      0.00000

------------------------ aborting loop because EDIFF is reached ----------------------------------------

 INTERNAL STRAIN TENSOR  FOR ION    4  DIRECTION 3   (eV/Angst):
     5.05163  0.00000  0.00000
     0.00000  5.05937 -0.01050
     0.00000  0.00566-11.18427

 POSITION                   FORCE-CONSTANT FOR ION    4 DIRECTION 3 (eV/Angst/Angst)
      0.00000      1.80629      2.50490        -0.000000      0.000049      6.106430
      1.56429      0.90315      5.01338        -0.000000     -0.000011      5.918657
      0.00000      1.80629      4.41850        -0.000000      0.000129      6.877058
      1.56429      0.90315      1.91002         0.000000     -0.000167    -18.902145
    total drift:                                0.000000     -0.000000      0.000000

 BORN EFFECTIVE CHARGE FOR ION    4 DIRECTION 3 :   0.000   0.000  -2.679
                   rigid augmentation           :   0.000   0.000  -0.227
                   ionic contribution           :   0.000   0.000   5.000
                   Berry contribution           :   0.000   0.000  -7.452

  LATTYP: Found a hexagonal cell.
 ALAT       =     3.1285878957
 C/A-ratio  =     1.6035843588

  Lattice vectors:

 A1 = (   3.1285878957,   0.0000000000,   0.0000000000)
 A2 = (  -1.5642939478,   2.7094365956,   0.0000000000)
 A3 = (   0.0000000000,   0.0000000000,   5.0169546146)

Analysis of symmetry for initial positions (statically):
 Subroutine PRICEL returns:
 Original cell was already a primitive cell.

[...]

The static configuration has the point symmetry C_1 .
 The point group associated with its full space group is C_1h.

Analysis of symmetry for dynamics (positions and initial velocities):
 Subroutine PRICEL returns:
 Original cell was already a primitive cell.

 Routine SETGRP: Setting up the symmetry group for a
 hexagonal supercell.

 Subroutine GETGRP returns: Found  2 space group operations
 (whereof  1 operations were pure point group operations)
 out of a pool of 24 trial point group operations.

The dynamic configuration has the point symmetry C_1 .
 The point group associated with its full space group is C_1h.

 Subroutine INISYM returns: Found  2 space group operations
 (whereof  1 operations are pure point group operations),
 and found     1 'primitive' translations

 MACROSCOPIC STATIC DIELECTRIC TENSOR (including local field effects in DFT)
           4.464676    -0.000000     0.000000
          -0.000000     4.463358    -0.000002
           0.000000    -0.000004     4.684487

 PIEZOELECTRIC TENSOR  for field in x, y, z        (e  Angst)
          XX          YY          ZZ          XY          YZ          ZX
  x    -0.00000    -0.00001     0.00002     0.00006     0.00000     0.90646
  y    -0.00004     0.00008    -0.00004     0.00000     0.90656    -0.00000
  z     0.71928     0.71928    -1.12735    -0.00000     0.00005     0.00000

 PIEZOELECTRIC TENSOR  for field in x, y, z        (C/m^2)
          XX          YY          ZZ          XY          YZ          ZX
  x    -0.00000    -0.00000     0.00000     0.00002    -0.00000     0.34150
  y    -0.00002     0.00003    -0.00002    -0.00000     0.34154    -0.00000
  z     0.27098     0.27098    -0.42472    -0.00000     0.00002    -0.00000

 BORN EFFECTIVE CHARGES (in e, cummulative output)
 ion    1
    1     2.51973     0.00007     0.00002
    2    -0.00000     2.51976     0.00001
    3    -0.00000     0.00000     2.67899
 ion    2
    1     2.51971     0.00006    -0.00003
    2    -0.00000     2.51979     0.00002
    3     0.00000     0.00000     2.67899
 ion    3
    1    -2.51970    -0.00006    -0.00002
    2    -0.00000    -2.51981    -0.00001
    3    -0.00000    -0.00000    -2.67899
 ion    4
    1    -2.51974    -0.00007     0.00003
    2     0.00000    -2.51975    -0.00002
    3    -0.00000    -0.00000    -2.67899

 INTERNAL STRAIN TENSOR FOR ION    1 for displacements in x,y,z  (eV/Angst):
          X           Y           Z          XY          YZ          ZX
  x     0.00000    -0.00000    -0.00000    -7.65958     0.00000    -4.81275
  y    -7.91024     7.78101     0.12927    -0.00000    -4.56417     0.00000
  z    -5.00343    -5.13789    11.21512     0.00000     0.09709    -0.00000

[...]

 INTERNAL STRAIN TENSOR FOR ION    4 for displacements in x,y,z  (eV/Angst):
          X           Y           Z          XY          YZ          ZX
  x    -0.00000     0.00000     0.00000     9.75958    -0.00000     4.85169
  y     9.80898    -9.80415    -0.00471     0.00000     4.91108    -0.00000
  z     5.05163     5.05937   -11.18427    -0.00000     0.00566     0.00000

 SECOND DERIVATIVES (NOT SYMMETRIZED)
               1X          1Y          1Z          2X          2Y          2Z          3X          3Y          3Z          4X          4Y          4Z
  1X   -14.939781    0.000000    0.000000    0.643355   -0.000000   -0.000000    1.485176   -0.000000    0.000000   12.811251   -0.000000   -0.000000
  1Y     0.000000  -14.939730   -0.000049   -0.000000    0.643350    0.000047   -0.000000    1.485237   -0.000013   -0.000000   12.811144    0.000015
  1Z     0.000000   -0.000007  -20.284641    0.000000   -0.000045    8.253292   -0.000000    0.000118    5.921693    0.000000   -0.000066    6.109656
  2X     0.643382   -0.000000    0.000000  -14.939764    0.000000   -0.000000   12.811146   -0.000000    0.000000    1.485236   -0.000000    0.000000
  2Y    -0.000000    0.643313   -0.000002    0.000000  -14.939734    0.000021   -0.000000   12.811302   -0.000017   -0.000000    1.485119   -0.000002
  2Z     0.000000   -0.000049    8.253284    0.000000   -0.000006  -20.284672    0.000000   -0.000063    6.109654   -0.000000    0.000118    5.921733
  3X     1.485286   -0.000000    0.000000   12.811284   -0.000000    0.000000  -15.001980    0.000000   -0.000000    0.705410   -0.000000    0.000000
  3Y    -0.000000    1.485330   -0.000043   -0.000000   12.811037   -0.000159    0.000000  -15.001866    0.000208   -0.000000    0.705499   -0.000006
  3Z     0.000000   -0.000002    5.918633   -0.000000    0.000046    6.106432    0.000000   -0.000180  -18.902122   -0.000000    0.000135    6.877058
  4X    12.811116   -0.000000    0.000000    1.485356   -0.000000    0.000000    0.705478   -0.000000    0.000000  -15.001950    0.000000   -0.000000
  4Y    -0.000000   12.811331   -0.000156   -0.000000    1.485290   -0.000021   -0.000000    0.705409    0.000018    0.000000  -15.002030    0.000160
  4Z    -0.000000    0.000049    6.106430    0.000000   -0.000011    5.918657   -0.000000    0.000129    6.877058    0.000000   -0.000167  -18.902145

 Eigenvectors and eigenvalues of the dynamical matrix

   1 f  =   21.213870 THz   133.290674 2PiTHz  707.618502 cm-1    87.733544 meV
             X         Y         Z           dx          dy          dz
      0.000000  1.806291  2.504900    -0.000000   -0.000006   -0.008722
      1.564294  0.903146  5.013378    -0.000000    0.000003    0.008720
      0.000000  1.806291  4.418497     0.000000   -0.000006   -0.707052
      1.564294  0.903146  1.910020     0.000000    0.000011    0.707054

[...]

   9 f  =    7.105254 THz    44.643624 2PiTHz  237.005739 cm-1    29.384977 meV
             X         Y         Z           dx          dy          dz
      0.000000  1.806291  2.504900    -0.000000   -0.596483    0.000004
      1.564294  0.903146  5.013378     0.000000    0.596483   -0.000003
      0.000000  1.806291  4.418497     0.000000    0.379748   -0.000000
      1.564294  0.903146  1.910020    -0.000000   -0.379748    0.000001

  10 f/i=    0.000052 THz     0.000329 2PiTHz    0.001748 cm-1     0.000217 meV
             X         Y         Z           dx          dy          dz
      0.000000  1.806291  2.504900     0.573741   -0.000000    0.000000
      1.564294  0.903146  5.013378     0.573747   -0.000000    0.000000
      0.000000  1.806291  4.418497     0.413302   -0.000000    0.000000
      1.564294  0.903146  1.910020     0.413301   -0.000000    0.000000

[...]

  12 f/i=    0.002216 THz     0.013926 2PiTHz    0.073930 cm-1     0.009166 meV
             X         Y         Z           dx          dy          dz
      0.000000  1.806291  2.504900    -0.000000    0.016495    0.573455
      1.564294  0.903146  5.013378    -0.000000    0.016494    0.573455
      0.000000  1.806291  4.418497    -0.000000    0.011882    0.413203
      1.564294  0.903146  1.910020    -0.000000    0.011882    0.413203

 MACROSCOPIC STATIC DIELECTRIC TENSOR IONIC CONTRIBUTION
           3.779241     0.000094    -0.000009
           0.000094     3.779418     0.000042
          -0.000009     0.000042     5.077713

 ELASTIC MODULI IONIC CONTR (kBar)
 Direction    XX          YY          ZZ          XY          YZ          ZX
 XX        -627.9663    306.7944    355.2197      0.0000      0.6870     -0.0000
 YY         306.7944   -627.9720    355.2277     -0.0000      0.5383      0.0000
 ZZ         355.2197    355.2277   -785.7650      0.0000     -1.5336     -0.0000
 XY           0.0000     -0.0000      0.0000   -460.9073     -0.0000      0.4158
 YZ           0.6870      0.5383     -1.5336     -0.0000   -118.3299      0.0000
 ZX          -0.0000      0.0000     -0.0000      0.4158      0.0000   -123.2377

 PIEZOELECTRIC TENSOR IONIC CONTR  for field in x, y, z        (C/m^2)
          XX          YY          ZZ          XY          YZ          ZX
  x    -0.00000     0.00000    -0.00000     0.00016    -0.00002    -0.64216
  y    -0.00452    -0.00440     0.00891     0.00000    -0.62923    -0.00000
  z    -0.84968    -0.84968     1.87952    -0.00000     0.00767     0.00000