 vasp.5.4.4.18Apr17-6-g9f103f2a35 (build Aug 24 2017 11:22:49) complex

 executed on             LinuxIFC date 2023.12.25  13:07:19

 INCAR:
 POTCAR:    PAW_PBE Ba_sv 06Sep2000
 POTCAR:    PAW_PBE O 08Apr2002

 POTCAR:    PAW_PBE Ba_sv 06Sep2000
   VRHFIN =Ba: 5s5p6s

   TITEL  = PAW_PBE Ba_sv 06Sep2000
   POMASS =  137.327; ZVAL   =   10.000    mass and valenz
   ENMAX  =  187.181; ENMIN  =  140.386 eV

 POTCAR:    PAW_PBE O 08Apr2002
   VRHFIN =O: s2p4

   TITEL  = PAW_PBE O 08Apr2002
   POMASS =   16.000; ZVAL   =    6.000    mass and valenz
   ENMAX  =  400.000; ENMIN  =  300.000 eV

  PAW_PBE Ba_sv 06Sep2000               :
  PAW_PBE O 08Apr2002                   :

 POSCAR: Ba1 O1
  positions in direct lattice
 exchange correlation table for  LEXCH =        8
   RHO(1)=    0.500       N(1)  =     2000
   RHO(2)=  100.500       N(2)  =     4000

 ion  position               nearest neighbor table
   1  0.000  0.000  0.000-   2 2.79   2 2.79   2 2.79   2 2.79   2 2.79   2 2.79
   2  0.500  0.500  0.500-   1 2.79   1 2.79   1 2.79   1 2.79   1 2.79   1 2.79

  LATTYP: Found a face centered cubic cell.
 ALAT       =     5.5807829904

  Lattice vectors:

 A1 = (  -2.7903914952,   0.0000000000,   2.7903914952)
 A2 = (   0.0000000000,   2.7903914952,   2.7903914952)
 A3 = (  -2.7903914952,   2.7903914952,   0.0000000000)

Analysis of symmetry for initial positions (statically):
 Subroutine PRICEL returns:
 Original cell was already a primitive cell.

 Routine SETGRP: Setting up the symmetry group for a
 face centered cubic supercell.

 Subroutine GETGRP returns: Found  8 space group operations
 (whereof  8 operations were pure point group operations)
 out of a pool of 48 trial point group operations.

The static configuration has the point symmetry C_4v.

Analysis of symmetry for dynamics (positions and initial velocities):
 Subroutine PRICEL returns:
 Original cell was already a primitive cell.

[...]

The dynamic configuration has the point symmetry C_4v.

 Subroutine INISYM returns: Found  8 space group operations
 (whereof  8 operations are pure point group operations),
 and found     1 'primitive' translations

 KPOINTS: pymatgen with grid density = 3000 / numb

Automatic generation of k-mesh.
Space group operators:
 irot       det(A)        alpha          n_x          n_y          n_z        tau_x        tau_y        tau_z
    1     1.000000     0.000000     1.000000     0.000000     0.000000     0.000000     0.000000     0.000000
    2     1.000000    90.000000    -1.000000    -0.000000    -0.000000     0.000000     0.000000     0.000000
    3    -1.000000   180.000000    -0.000000    -0.000000    -1.000000     0.000000     0.000000     0.000000
    4    -1.000000   180.000000    -0.000000     0.707107     0.707107     0.000000     0.000000     0.000000
    5    -1.000000   180.000000     0.000000    -1.000000    -0.000000     0.000000     0.000000     0.000000
    6     1.000000    90.000000     1.000000     0.000000    -0.000000     0.000000     0.000000     0.000000
    7     1.000000   180.000000     1.000000     0.000000     0.000000     0.000000     0.000000     0.000000
    8    -1.000000   180.000000     0.000000    -0.707107     0.707107     0.000000     0.000000     0.000000

 Subroutine IBZKPT returns following result:

 Found    163 irreducible k-points:

 Following reciprocal coordinates:
            Coordinates               Weight
  0.000000  0.000000  0.000000      1.000000
  0.083333  0.000000  0.000000      8.000000
  0.166667  0.000000 -0.000000      8.000000
  0.250000 -0.000000 -0.000000      8.000000
  0.333333  0.000000  0.000000      8.000000
  0.416667  0.000000 -0.000000      8.000000
  0.500000 -0.000000 -0.000000      4.000000
  0.083333  0.083333 -0.000000      4.000000
  0.166667  0.083333  0.000000     16.000000
  0.250000  0.083333 -0.000000     16.000000
  0.333333  0.083333 -0.000000     16.000000
  0.416667  0.083333 -0.000000     16.000000
  0.500000  0.083333 -0.000000     16.000000
 -0.416667  0.083333  0.000000     16.000000
 -0.333333  0.083333  0.000000     16.000000
 -0.250000  0.083333 -0.000000     16.000000
 -0.166667  0.083333  0.000000     16.000000
 -0.083333  0.083333 -0.000000      8.000000
  0.166667  0.166667 -0.000000      4.000000
  0.250000  0.166667 -0.000000     16.000000
  0.333333  0.166667 -0.000000     16.000000
  0.416667  0.166667  0.000000     16.000000
  0.500000  0.166667  0.000000     16.000000
 -0.416667  0.166667  0.000000     16.000000
 -0.333333  0.166667  0.000000     16.000000
 -0.250000  0.166667 -0.000000     16.000000
 -0.166667  0.166667  0.000000      8.000000
  0.250000  0.250000 -0.000000      4.000000
  0.333333  0.250000 -0.000000     16.000000
  0.416667  0.250000 -0.000000     16.000000
  0.500000  0.250000 -0.000000     16.000000
 -0.416667  0.250000  0.000000     16.000000
 -0.333333  0.250000 -0.000000     16.000000
 -0.250000  0.250000  0.000000      8.000000
  0.333333  0.333333 -0.000000      4.000000
  0.416667  0.333333 -0.000000     16.000000
  0.500000  0.333333 -0.000000     16.000000
 -0.416667  0.333333 -0.000000     16.000000
 -0.333333  0.333333 -0.000000      8.000000
  0.416667  0.416667 -0.000000      4.000000
  0.500000  0.416667 -0.000000     16.000000
 -0.416667  0.416667 -0.000000      8.000000
  0.500000  0.500000 -0.000000      2.000000
  0.083333 -0.000000  0.083333      2.000000
  0.166667  0.000000  0.083333      8.000000
  0.250000  0.000000  0.083333      8.000000
  0.333333 -0.000000  0.083333      8.000000
  0.416667 -0.000000  0.083333      8.000000
  0.500000  0.000000  0.083333      8.000000
 -0.416667 -0.000000  0.083333      8.000000
 -0.333333 -0.000000  0.083333      8.000000
 -0.250000 -0.000000  0.083333      8.000000
 -0.166667  0.000000  0.083333      8.000000
 -0.083333 -0.000000  0.083333      4.000000
  0.250000  0.166667  0.083333      8.000000
  0.333333  0.166667  0.083333     16.000000
  0.416667  0.166667  0.083333     16.000000
  0.500000  0.166667  0.083333     16.000000
 -0.416667  0.166667  0.083333      8.000000
  0.166667  0.250000  0.083333      8.000000
[...]
  0.333333 -0.083333  0.250000      8.000000
  0.333333 -0.000000  0.333333      2.000000
  0.416667 -0.000000  0.333333      8.000000
  0.500000 -0.000000  0.333333      8.000000
 -0.416667  0.000000  0.333333      8.000000
 -0.333333 -0.000000  0.333333      4.000000
  0.416667 -0.250000  0.333333      8.000000
  0.416667 -0.166667  0.333333     16.000000
  0.500000 -0.166667  0.333333      4.000000
  0.416667 -0.083333  0.333333      8.000000
  0.416667 -0.000000  0.416667      2.000000
  0.500000 -0.000000  0.416667      8.000000
 -0.416667 -0.000000  0.416667      4.000000
  0.500000 -0.083333  0.416667      4.000000
  0.500000 -0.000000  0.500000      1.000000

 Following cartesian coordinates:
            Coordinates               Weight
  0.000000  0.000000  0.000000      1.000000
 -0.014932 -0.014932  0.014932      8.000000
 -0.029864 -0.029864  0.029864      8.000000
 -0.044797 -0.044797  0.044797      8.000000
 -0.059729 -0.059729  0.059729      8.000000
 -0.074661 -0.074661  0.074661      8.000000
 -0.089593 -0.089593  0.089593      4.000000
  0.000000  0.000000  0.029864      4.000000
 -0.014932 -0.014932  0.044797     16.000000
 -0.029864 -0.029864  0.059729     16.000000
 -0.044797 -0.044797  0.074661     16.000000
 -0.059729 -0.059729  0.089593     16.000000
 -0.074661 -0.074661  0.104525     16.000000
  0.089593  0.089593 -0.059729     16.000000
  0.074661  0.074661 -0.044797     16.000000
  0.059729  0.059729 -0.029864     16.000000
  0.044797  0.044797 -0.014932     16.000000
  0.029864  0.029864  0.000000      8.000000
 -0.000000 -0.000000  0.059729      4.000000
 -0.014932 -0.014932  0.074661     16.000000
 -0.029864 -0.029864  0.089593     16.000000
 -0.044797 -0.044797  0.104525     16.000000
 -0.059729 -0.059729  0.119458     16.000000
  0.104525  0.104525 -0.044797     16.000000
  0.089593  0.089593 -0.029864     16.000000
  0.074661  0.074661 -0.014932     16.000000
  0.059729  0.059729 -0.000000      8.000000
  0.000000  0.000000  0.089593      4.000000
 -0.014932 -0.014932  0.104525     16.000000
 -0.029864 -0.029864  0.119458     16.000000
 -0.044797 -0.044797  0.134390     16.000000
  0.119458  0.119458 -0.029864     16.000000
  0.104525  0.104525 -0.014932     16.000000
  0.089593  0.089593  0.000000      8.000000
 -0.000000 -0.000000  0.119458      4.000000
 -0.014932 -0.014932  0.134390     16.000000
 -0.029864 -0.029864  0.149322     16.000000
  0.134390  0.134390 -0.014932     16.000000
  0.119458  0.119458  0.000000      8.000000
  0.000000  0.000000  0.149322      4.000000
 -0.014932 -0.014932  0.164254     16.000000
  0.149322  0.149322  0.000000      8.000000
  0.000000  0.000000  0.179186      2.000000
 -0.029864  0.000000 -0.000000      2.000000
 -0.044797 -0.014932  0.014932      8.000000
 -0.059729 -0.029864  0.029864      8.000000
 -0.074661 -0.044797  0.044797      8.000000
 -0.089593 -0.059729  0.059729      8.000000
 -0.104525 -0.074661  0.074661      8.000000
  0.059729  0.089593 -0.089593      8.000000
  0.044797  0.074661 -0.074661      8.000000
  0.029864  0.059729 -0.059729      8.000000
  0.014932  0.044797 -0.044797      8.000000
 -0.000000  0.029864 -0.029864      4.000000
 -0.029864  0.000000  0.059729      8.000000
 -0.044797 -0.014932  0.074661     16.000000
 -0.059729 -0.029864  0.089593     16.000000
 -0.074661 -0.044797  0.104525     16.000000
  0.089593  0.119458 -0.059729      8.000000
 -0.000000  0.029864  0.059729      8.000000
[...]
 -0.119458 -0.029864  0.000000      8.000000
 -0.119458 -0.000000 -0.000000      2.000000
 -0.134390 -0.014932  0.014932      8.000000
 -0.149322 -0.029864  0.029864      8.000000
  0.014932  0.134390 -0.134390      8.000000
  0.000000  0.119458 -0.119458      4.000000
 -0.179186 -0.059729 -0.029864      8.000000
 -0.164254 -0.044797 -0.014932     16.000000
 -0.179186 -0.059729  0.000000      4.000000
 -0.149322 -0.029864  0.000000      8.000000
 -0.149322  0.000000  0.000000      2.000000
 -0.164254 -0.014932  0.014932      8.000000
  0.000000  0.149322 -0.149322      4.000000
 -0.179186 -0.029864  0.000000      4.000000
 -0.179186  0.000000  0.000000      1.000000

 Subroutine IBZKPT_HF returns following result:

 Found   1728 k-points in 1st BZ
 the following   1728 k-points will be used (e.g. in the exchange kernel)
 Following reciprocal coordinates:   # in IRBZ
  0.000000  0.000000  0.000000    0.00057870   1 t-inv F
  0.083333  0.000000  0.000000    0.00057870   2 t-inv F
  0.166667  0.000000 -0.000000    0.00057870   3 t-inv F
  0.250000 -0.000000 -0.000000    0.00057870   4 t-inv F
  0.333333  0.000000  0.000000    0.00057870   5 t-inv F
  0.416667  0.000000 -0.000000    0.00057870   6 t-inv F
  0.500000 -0.000000 -0.000000    0.00057870   7 t-inv F
  0.083333  0.083333 -0.000000    0.00057870   8 t-inv F
  0.166667  0.083333  0.000000    0.00057870   9 t-inv F
  0.250000  0.083333 -0.000000    0.00057870  10 t-inv F
  0.333333  0.083333 -0.000000    0.00057870  11 t-inv F
  0.416667  0.083333 -0.000000    0.00057870  12 t-inv F
[...]
      9       5.1709      0.00000
     10       6.4152      0.00000
     11       6.4152      0.00000
     12       6.4152      0.00000
     13       8.6259      0.00000
     14       8.6259      0.00000
     15      11.6786      0.00000
     16      20.5325      0.00000

[...]

 soft charge-density along one line, spin component           1
         0         1         2         3         4         5         6         7         8         9
 total charge-density along one line

------------------------ aborting loop because EDIFF is reached ----------------------------------------

  FORCE on cell =-STRESS in cart. coord.  units (eV):
  Direction    XX          YY          ZZ          XY          YZ          ZX
  Alpha Z   105.15442   105.15442   105.15442
  Ewald    -324.38385  -324.38385  -324.38385     0.00000    -0.00000    -0.00000
  Hartree    68.41337    68.41337    68.41337    -0.00000     0.00000    -0.00000
  E(xc)     -63.70996   -63.70996   -63.70996    -0.00000     0.00000    -0.00000
  Local       5.85128     5.85128     5.85128    -0.00002     0.00002    -0.00002
  n-local   -59.93713   -60.40480   -59.46946     1.44465    -0.20699    -0.52884
  augment    -2.31120    -2.31120    -2.31120     0.00002    -0.00002     0.00002
  Kinetic   271.27324   271.32102   271.22545    -7.68571     1.11309     2.85184
  Fock        0.00000     0.00000     0.00000     0.00000     0.00000     0.00000
  Total       0.35016     0.35016     0.35016     0.00000    -0.00000     0.00000
  in kB      12.91075    12.91076    12.91076     0.00000    -0.00000     0.00000

 VOLUME and BASIS-vectors are now :
  energy-cutoff  :      520.00
  volume of cell :       43.45
      direct lattice vectors                 reciprocal lattice vectors
    -2.790391495  0.000000000  2.790391495    -0.179186326 -0.179186326  0.179186326
     0.000000000  2.790391495  2.790391495     0.179186326  0.179186326  0.179186326
    -2.790391495  2.790391495  0.000000000    -0.179186326  0.179186326 -0.179186326

  length of vectors
     3.946209497  3.946209497  3.946209497     0.310359821  0.310359821  0.310359821

 FORCES acting on ions
    electron-ion (+dipol)            ewald-force                    non-local-force                 convergence-correction
   -.189E-04 0.202E-13 0.281E-13   0.179E-04 0.118E-14 0.708E-14   0.117E-05 -.293E-22 0.273E-23   0.289E-07 0.325E-13 0.296E-13
   0.169E-04 -.231E-11 0.526E-13   -.179E-04 -.153E-14 -.718E-14   0.829E-06 0.179E-22 -.952E-23   -.305E-07 -.102E-12 -.105E-12
   -.199E-05 -.229E-11 0.807E-13   -.114E-14 -.356E-15 -.960E-16   0.200E-05 -.115E-22 -.679E-23   -.167E-08 -.693E-13 -.756E-13

 POSITION                                       TOTAL-FORCE (eV/Angst)
      0.00000      0.00000      0.00000         0.000000     -0.000000      0.000000
     -2.79039      2.79039      2.79039        -0.000000      0.000000     -0.000000
    total drift:                                0.000000     -0.000000      0.000000

  FREE ENERGIE OF THE ION-ELECTRON SYSTEM (eV)
  free  energy   TOTEN  =       -11.80607779 eV

  energy  without entropy=      -11.80607779  energy(sigma->0) =      -11.80607779

 Found     4 degrees of freedom:

     directions for atom     1:  y
     directions for atom     2:  y
 Linear response reoptimize wavefunctions
 Linear response to external field (no local field effect), progress :
  Direction:   1
  LATTYP: Found a face centered cubic cell.
 ALAT       =     5.5807829904

[...]

----------------------------------------- Iteration    1(   1)  ---------------------------------------

 Free energy of the ion-electron system (eV)
  -Hartree energ DENC   =         0.00000000
  -V(xc)+E(xc)   XCENC  =         0.00000000
  PAW double counting   =         0.00000000        0.00000000
  entropy T*S    EENTRO =         0.00000000
  eigenvalues    EBANDS =        -0.39567650
  free energy    TOTEN  =        -0.39567650 eV

  energy without entropy =       -0.39567650

[...]

 change of polarisation eV/A/(eV/A) component  1 :     0.833    -0.055     0.009
 dielectric tensor                  component  1 :     4.468    -0.230     0.036

 Linear response to external field (no local field effect), progress :
  Direction:   2
  LATTYP: Found a face centered cubic cell.
 ALAT       =     5.5807829904

[...]

The dynamic configuration has the point symmetry C_1h.

[...]

 Linear response to external field (no local field effect), progress :
  Direction:   3
  LATTYP: Found a face centered cubic cell.
 ALAT       =     5.5807829904

[...]

 HEAD OF MICROSCOPIC STATIC DIELECTRIC TENSOR (INDEPENDENT PARTICLE, excluding Hartree and local field effects)
           4.467862    -0.000000     0.000000
          -0.000000     4.468337    -0.000000
           0.000000    -0.000000     4.468337

 Linear response to external field, progress :
  Direction:   1
  LATTYP: Found a face centered cubic cell.
 ALAT       =     5.5807829904

[...]

 PIEZOELECTRIC TENSOR FIELD DIRECTION 1  (e Angst)
     0.00001 -0.00000  0.00000           (  0.00000 -0.00000  0.00000)
    -0.00000 -0.00001 -0.00000           ( -0.00000  0.00000 -0.00000)
     0.00000 -0.00000 -0.00001           (  0.00000 -0.00000  0.00000)

 PIEZOELECTRIC TENSOR FIELD DIRECTION 1  (C/m^2)
     0.00000 -0.00000  0.00000
    -0.00000 -0.00000 -0.00000
     0.00000 -0.00000 -0.00000

      POSITION         DIRECTION 1           BORN EFFECTIVE CHARGE    (rigid.aug.   ionic)
      0.00000      0.00000      0.00000     2.74355  0.00000 -0.00000 (  1.71052 10.00000)
     -2.79039      2.79039      2.79039    -2.74355  0.00000  0.00000 ( -0.60967  6.00000)
    total drift (improves with k-points):  -0.00000  0.00000  0.00000

[...]

 Linear response to external field, progress :
  Direction:   3
  LATTYP: Found a face centered cubic cell.
 ALAT       =     5.5807829904

[...]

 change of polarisation eV/A/(eV/A) component  3 :    -0.000     0.001     0.785
 dielectric tensor                  component  3 :    -0.000     0.004     4.270

 PIEZOELECTRIC TENSOR FIELD DIRECTION 3  (e Angst)
    -0.00001 -0.00000 -0.00006           ( -0.00000 -0.00000  0.00000)
    -0.00000 -0.00000 -0.00000           ( -0.00000 -0.00000 -0.00000)
    -0.00006 -0.00000  0.00003           (  0.00000 -0.00000  0.00000)

 PIEZOELECTRIC TENSOR FIELD DIRECTION 3  (C/m^2)
    -0.00000 -0.00000 -0.00002
    -0.00000 -0.00000 -0.00000
    -0.00002 -0.00000  0.00001

      POSITION         DIRECTION 3           BORN EFFECTIVE CHARGE    (rigid.aug.   ionic)
      0.00000      0.00000      0.00000     0.00001 -0.00000  2.74376 (  1.71052 10.00000)
     -2.79039      2.79039      2.79039    -0.00001 -0.00000 -2.74384 ( -0.60967  6.00000)
    total drift (improves with k-points):   0.00000 -0.00000 -0.00007

[...]

 MACROSCOPIC STATIC DIELECTRIC TENSOR (including local field effects in DFT)
           4.269980    -0.000000     0.000000
          -0.000000     4.270552    -0.000000
           0.000000    -0.000000     4.270552

 Linear response:
   Degrees of freedom DOF   =            4
 Linear response progress:
  Degree of freedom:   1/  4
  LATTYP: Found a face centered cubic cell.
 ALAT       =     5.5807829904

[...]

 INTERNAL STRAIN TENSOR  FOR ION    1  DIRECTION 1   (eV/Angst):
     0.00197  0.00000  0.00000
    -0.00000 -0.00128 -0.00000
     0.00000 -0.00000 -0.00128

 POSITION                   FORCE-CONSTANT FOR ION    1 DIRECTION 1 (eV/Angst/Angst)
      0.00000      0.00000      0.00000        -0.578969      0.000000      0.000000
     -2.79039      2.79039      2.79039         0.578969     -0.000000     -0.000000
    total drift:                                0.000000      0.000000     -0.000000

 BORN EFFECTIVE CHARGE FOR ION    1 DIRECTION 1 :   2.744  -0.000   0.000
                   rigid augmentation           :   1.711  -0.000   0.000
                   ionic contribution           :  10.000  -0.000   0.000
                   Berry contribution           :  -8.967   0.000  -0.000

 Linear response progress:
  Degree of freedom:   2/  4
  LATTYP: Found a face centered cubic cell.
 ALAT       =     5.5807829904

[...]

 Linear response progress:
  Degree of freedom:   4/  4
  LATTYP: Found a face centered cubic cell.
 ALAT       =     5.5807829904

[...]

The dynamic configuration has the point symmetry C_1h.

[...]

----------------------------------------- Iteration    8(  12)  ---------------------------------------

 Broyden mixing:
  rms(total) = 0.27163E-05    rms(broyden)= 0.27154E-05
  rms(prec ) = 0.61249E-05
  weight for this iteration     100.00

 eigenvalues of (default mixing * dielectric matrix)
  average eigenvalue GAMMA=   1.8073
  3.1222  2.8459  2.5453  2.2985  1.9079  1.6741  0.6535  0.9897  1.0180  1.0180

 Free energy of the ion-electron system (eV)
  -Hartree energ DENC   =        -0.12723072
  -V(xc)+E(xc)   XCENC  =         0.00047684
  PAW double counting   =         0.00005406       -0.00005318
  entropy T*S    EENTRO =        -0.00000000
  eigenvalues    EBANDS =        -0.24072129
  free energy    TOTEN  =        -0.36747428 eV

  energy without entropy =       -0.36747428

[...]

 k-point 476 :      -0.0000   -0.5000   -0.5000
  band No.  band energies     occupation
      1      -0.0001      0.00000
      2       0.0002      0.00000
      3      -0.0001      0.00000
      4      -0.0001      0.00000
      5      -0.0000      0.00000
      6       0.0002      0.00000
      7       0.0002      0.00000
      8       0.0002      0.00000
      9      -0.0000      0.00000
     10       0.0000      0.00000
     11      -0.0000      0.00000
     12       0.0001      0.00000
     13      -0.0000      0.00000
     14      -0.0001      0.00000
     15      -0.0000      0.00000
     16       0.0000      0.00000

------------------------ aborting loop because EDIFF is reached ----------------------------------------

 INTERNAL STRAIN TENSOR  FOR ION    2  DIRECTION 2   (eV/Angst):
    -0.00067 -0.00129  0.00000
    -0.00130 -0.00055  0.00000
     0.00000  0.00000  0.00023

 POSITION                   FORCE-CONSTANT FOR ION    2 DIRECTION 2 (eV/Angst/Angst)
      0.00000      0.00000      0.00000         0.000005      0.569930     -0.000000
     -2.79039      2.79039      2.79039        -0.000005     -0.569930      0.000000
    total drift:                                0.000000      0.000000      0.000000

 BORN EFFECTIVE CHARGE FOR ION    2 DIRECTION 2 :   0.000  -2.744   0.000
                   rigid augmentation           :  -0.000  -0.610  -0.000
                   ionic contribution           :  -0.000   6.000  -0.000
                   Berry contribution           :   0.000  -8.134   0.000

  LATTYP: Found a face centered cubic cell.
 ALAT       =     5.5807829904

  Lattice vectors:

 A1 = (  -2.7903914952,   0.0000000000,   2.7903914952)
 A2 = (   0.0000000000,   2.7903914952,   2.7903914952)
 A3 = (  -2.7903914952,   2.7903914952,   0.0000000000)

Analysis of symmetry for initial positions (statically):
 Subroutine PRICEL returns:
 Original cell was already a primitive cell.

[...]

The static configuration has the point symmetry C_4v.

Analysis of symmetry for dynamics (positions and initial velocities):
 Subroutine PRICEL returns:
 Original cell was already a primitive cell.

 Routine SETGRP: Setting up the symmetry group for a
 face centered cubic supercell.

 Subroutine GETGRP returns: Found  8 space group operations
 (whereof  8 operations were pure point group operations)
 out of a pool of 48 trial point group operations.

The dynamic configuration has the point symmetry C_4v.

 Subroutine INISYM returns: Found  8 space group operations
 (whereof  8 operations are pure point group operations),
 and found     1 'primitive' translations

 MACROSCOPIC STATIC DIELECTRIC TENSOR (including local field effects in DFT)
           4.269980    -0.000000     0.000000
          -0.000000     4.270552    -0.000000
           0.000000    -0.000000     4.270552

 PIEZOELECTRIC TENSOR  for field in x, y, z        (e  Angst)
          XX          YY          ZZ          XY          YZ          ZX
  x     0.00001    -0.00001    -0.00001    -0.00000    -0.00000     0.00000
  y     0.00000     0.00007    -0.00005     0.00047     0.00000     0.00000
  z    -0.00001    -0.00000     0.00003    -0.00000    -0.00000    -0.00006

 PIEZOELECTRIC TENSOR  for field in x, y, z        (C/m^2)
          XX          YY          ZZ          XY          YZ          ZX
  x     0.00000    -0.00000    -0.00000    -0.00000     0.00000     0.00000
  y    -0.00000    -0.00000    -0.00000     0.00008     0.00000    -0.00000
  z     0.00000     0.00000     0.00000    -0.00000    -0.00000     0.00008

 BORN EFFECTIVE CHARGES (in e, cummulative output)
 ion    1
    1     2.74355    -0.00000    -0.00000
    2    -0.00011     2.74392     0.00000
    3     0.00001    -0.00000     2.74380
 ion    2
    1    -2.74355     0.00000     0.00000
    2     0.00011    -2.74392    -0.00000
    3    -0.00001     0.00000    -2.74380

 INTERNAL STRAIN TENSOR FOR ION    1 for displacements in x,y,z  (eV/Angst):
          X           Y           Z          XY          YZ          ZX
  x     0.00197    -0.00128    -0.00128     0.00000     0.00000    -0.00000
  y     0.00000     0.00000     0.00000    -0.00309    -0.00000     0.00000
  z     0.00000    -0.00000    -0.00000     0.00000     0.00000    -0.00309

 INTERNAL STRAIN TENSOR FOR ION    2 for displacements in x,y,z  (eV/Angst):
          X           Y           Z          XY          YZ          ZX
  x    -0.00117     0.00097     0.00097     0.00000    -0.00000    -0.00000
  y     0.00000     0.00000    -0.00000    -0.00130    -0.00000     0.00000
  z     0.00000     0.00000     0.00000     0.00000     0.00000    -0.00129

 SECOND DERIVATIVES (NOT SYMMETRIZED)
               1X          1Y          1Z          2X          2Y          2Z
  1X    -0.578969    0.000000   -0.000000    0.578969   -0.000000    0.000000
  1Y     0.000000   -0.578975    0.000000   -0.000000    0.578975   -0.000000
  1Z    -0.000000    0.000000   -0.578975    0.000000   -0.000000    0.578975
  2X     0.569923   -0.000000    0.000000   -0.569923    0.000000   -0.000000
  2Y    -0.000000    0.569930   -0.000000    0.000000   -0.569930    0.000000
  2Z     0.000000   -0.000000    0.569930   -0.000000    0.000000   -0.569930

 Eigenvectors and eigenvalues of the dynamical matrix

   1 f  =    3.120278 THz    19.605287 2PiTHz  104.081277 cm-1    12.904438 meV
             X         Y         Z           dx          dy          dz
      0.000000  0.000000  0.000000    -0.000000    0.000000   -0.325327
     -2.790391  2.790391  2.790391     0.000000    0.000000    0.945602

[...]

   3 f  =    3.120261 THz    19.605180 2PiTHz  104.080713 cm-1    12.904368 meV
             X         Y         Z           dx          dy          dz
      0.000000  0.000000  0.000000    -0.325327    0.000000   -0.000000
     -2.790391  2.790391  2.790391     0.945602   -0.000000   -0.000000

   4 f/i=    0.007558 THz     0.047485 2PiTHz    0.252092 cm-1     0.031255 meV
             X         Y         Z           dx          dy          dz
      0.000000  0.000000  0.000000     0.000000    0.920808   -0.215118
     -2.790391  2.790391  2.790391     0.000000    0.316797   -0.074010

[...]

   6 f/i=    0.007558 THz     0.047487 2PiTHz    0.252103 cm-1     0.031257 meV
             X         Y         Z           dx          dy          dz
      0.000000  0.000000  0.000000     0.945602   -0.000000    0.000000
     -2.790391  2.790391  2.790391     0.325327   -0.000000    0.000000

 MACROSCOPIC STATIC DIELECTRIC TENSOR IONIC CONTRIBUTION
          54.563694    -0.002242     0.000220
          -0.002242    54.577664    -0.000000
           0.000220    -0.000000    54.573027

 ELASTIC MODULI IONIC CONTR (kBar)
 Direction    XX          YY          ZZ          XY          YZ          ZX
 XX          -0.0002      0.0001      0.0001      0.0000     -0.0000      0.0000
 YY           0.0001     -0.0001     -0.0001     -0.0000      0.0000     -0.0000
 ZZ           0.0001     -0.0001     -0.0001     -0.0000      0.0000     -0.0000
 XY           0.0000     -0.0000     -0.0000     -0.0001     -0.0000      0.0000
 YZ          -0.0000      0.0000      0.0000     -0.0000     -0.0000      0.0000
 ZX           0.0000     -0.0000     -0.0000      0.0000      0.0000     -0.0001

 PIEZOELECTRIC TENSOR IONIC CONTR  for field in x, y, z        (C/m^2)
          XX          YY          ZZ          XY          YZ          ZX
  x     0.00277    -0.00199    -0.00199    -0.00000     0.00000    -0.00000
  y    -0.00000     0.00000     0.00000    -0.00159    -0.00000     0.00000
  z     0.00000    -0.00000    -0.00000     0.00000     0.00000    -0.00159