 vasp.5.4.4.18Apr17-6-g9f103f2a35 (build Aug 24 2017 11:22:49) complex

 executed on             LinuxIFC date 2023.12.25  13:07:25

 INCAR:
 POTCAR:    PAW_PBE Cs_sv 08Apr2002
 POTCAR:    PAW_PBE F 08Apr2002

 POTCAR:    PAW_PBE Cs_sv 08Apr2002
   VRHFIN =Cs: 5s5p6s

   TITEL  = PAW_PBE Cs_sv 08Apr2002
   POMASS =  132.900; ZVAL   =    9.000    mass and valenz
   ENMAX  =  220.318; ENMIN  =  165.238 eV

 POTCAR:    PAW_PBE F 08Apr2002
   VRHFIN =F: s2p5

   TITEL  = PAW_PBE F 08Apr2002
   POMASS =   18.998; ZVAL   =    7.000    mass and valenz
   ENMAX  =  400.000; ENMIN  =  300.000 eV

  PAW_PBE Cs_sv 08Apr2002               :
  PAW_PBE F 08Apr2002                   :

 POSCAR: Cs1 F1
  positions in direct lattice
 exchange correlation table for  LEXCH =        8
   RHO(1)=    0.500       N(1)  =     2000
   RHO(2)=  100.500       N(2)  =     4000

 ion  position               nearest neighbor table
   1  0.000  0.000  0.000-
   2  0.500  0.500  0.500-

  LATTYP: Found a face centered cubic cell.
 ALAT       =     6.0122785905

  Lattice vectors:

 A1 = (  -3.0061392953,   0.0000000000,   3.0061392953)
 A2 = (   0.0000000000,   3.0061392953,   3.0061392953)
 A3 = (  -3.0061392953,   3.0061392953,   0.0000000000)

Analysis of symmetry for initial positions (statically):
 Subroutine PRICEL returns:
 Original cell was already a primitive cell.

 Routine SETGRP: Setting up the symmetry group for a
 face centered cubic supercell.

 Subroutine GETGRP returns: Found  8 space group operations
 (whereof  8 operations were pure point group operations)
 out of a pool of 48 trial point group operations.

The static configuration has the point symmetry C_4v.

Analysis of symmetry for dynamics (positions and initial velocities):
 Subroutine PRICEL returns:
 Original cell was already a primitive cell.

[...]

The dynamic configuration has the point symmetry C_4v.

 Subroutine INISYM returns: Found  8 space group operations
 (whereof  8 operations are pure point group operations),
 and found     1 'primitive' translations

 KPOINTS: pymatgen with grid density = 3000 / numb

Automatic generation of k-mesh.
Space group operators:
 irot       det(A)        alpha          n_x          n_y          n_z        tau_x        tau_y        tau_z
    1     1.000000     0.000000     1.000000     0.000000     0.000000     0.000000     0.000000     0.000000
    2     1.000000    90.000000    -1.000000    -0.000000    -0.000000     0.000000     0.000000     0.000000
    3    -1.000000   180.000000     0.000000    -0.000000     1.000000     0.000000     0.000000     0.000000
    4    -1.000000   180.000000     0.000000     0.707107     0.707107     0.000000     0.000000     0.000000
    5    -1.000000   180.000000     0.000000    -1.000000    -0.000000     0.000000     0.000000     0.000000
    6     1.000000    90.000000     1.000000     0.000000    -0.000000     0.000000     0.000000     0.000000
    7     1.000000   180.000000     1.000000     0.000000     0.000000     0.000000     0.000000     0.000000
    8    -1.000000   180.000000     0.000000    -0.707107     0.707107     0.000000     0.000000     0.000000

 Subroutine IBZKPT returns following result:

 Found    163 irreducible k-points:

 Following reciprocal coordinates:
            Coordinates               Weight
  0.000000  0.000000  0.000000      1.000000
  0.083333  0.000000 -0.000000      8.000000
  0.166667 -0.000000  0.000000      8.000000
  0.250000  0.000000  0.000000      8.000000
  0.333333 -0.000000 -0.000000      8.000000
  0.416667  0.000000 -0.000000      8.000000
  0.500000  0.000000  0.000000      4.000000
  0.083333  0.083333 -0.000000      4.000000
  0.166667  0.083333 -0.000000     16.000000
  0.250000  0.083333 -0.000000     16.000000
  0.333333  0.083333  0.000000     16.000000
  0.416667  0.083333 -0.000000     16.000000
  0.500000  0.083333 -0.000000     16.000000
 -0.416667  0.083333 -0.000000     16.000000
 -0.333333  0.083333  0.000000     16.000000
 -0.250000  0.083333  0.000000     16.000000
 -0.166667  0.083333 -0.000000     16.000000
 -0.083333  0.083333 -0.000000      8.000000
  0.166667  0.166667 -0.000000      4.000000
  0.250000  0.166667 -0.000000     16.000000
  0.333333  0.166667 -0.000000     16.000000
  0.416667  0.166667  0.000000     16.000000
  0.500000  0.166667 -0.000000     16.000000
 -0.416667  0.166667 -0.000000     16.000000
 -0.333333  0.166667 -0.000000     16.000000
 -0.250000  0.166667  0.000000     16.000000
 -0.166667  0.166667 -0.000000      8.000000
  0.250000  0.250000 -0.000000      4.000000
  0.333333  0.250000 -0.000000     16.000000
  0.416667  0.250000 -0.000000     16.000000
  0.500000  0.250000 -0.000000     16.000000
 -0.416667  0.250000 -0.000000     16.000000
 -0.333333  0.250000  0.000000     16.000000
 -0.250000  0.250000 -0.000000      8.000000
  0.333333  0.333333 -0.000000      4.000000
  0.416667  0.333333 -0.000000     16.000000
  0.500000  0.333333 -0.000000     16.000000
 -0.416667  0.333333  0.000000     16.000000
 -0.333333  0.333333  0.000000      8.000000
  0.416667  0.416667 -0.000000      4.000000
  0.500000  0.416667 -0.000000     16.000000
 -0.416667  0.416667 -0.000000      8.000000
  0.500000  0.500000 -0.000000      2.000000
  0.083333 -0.000000  0.083333      2.000000
  0.166667 -0.000000  0.083333      8.000000
  0.250000  0.000000  0.083333      8.000000
  0.333333  0.000000  0.083333      8.000000
  0.416667 -0.000000  0.083333      8.000000
  0.500000  0.000000  0.083333      8.000000
 -0.416667 -0.000000  0.083333      8.000000
 -0.333333  0.000000  0.083333      8.000000
 -0.250000  0.000000  0.083333      8.000000
 -0.166667  0.000000  0.083333      8.000000
 -0.083333 -0.000000  0.083333      4.000000
  0.250000  0.166667  0.083333      8.000000
  0.333333  0.166667  0.083333     16.000000
  0.416667  0.166667  0.083333     16.000000
  0.500000  0.166667  0.083333     16.000000
 -0.416667  0.166667  0.083333      8.000000
  0.166667  0.250000  0.083333      8.000000
[...]
  0.333333 -0.083333  0.250000      8.000000
  0.333333 -0.000000  0.333333      2.000000
  0.416667 -0.000000  0.333333      8.000000
  0.500000 -0.000000  0.333333      8.000000
 -0.416667  0.000000  0.333333      8.000000
 -0.333333  0.000000  0.333333      4.000000
  0.416667 -0.250000  0.333333      8.000000
  0.416667 -0.166667  0.333333     16.000000
  0.500000 -0.166667  0.333333      4.000000
  0.416667 -0.083333  0.333333      8.000000
  0.416667 -0.000000  0.416667      2.000000
  0.500000 -0.000000  0.416667      8.000000
 -0.416667 -0.000000  0.416667      4.000000
  0.500000 -0.083333  0.416667      4.000000
  0.500000 -0.000000  0.500000      1.000000

 Following cartesian coordinates:
            Coordinates               Weight
  0.000000  0.000000  0.000000      1.000000
 -0.013861 -0.013861  0.013861      8.000000
 -0.027721 -0.027721  0.027721      8.000000
 -0.041582 -0.041582  0.041582      8.000000
 -0.055442 -0.055442  0.055442      8.000000
 -0.069303 -0.069303  0.069303      8.000000
 -0.083163 -0.083163  0.083163      4.000000
  0.000000  0.000000  0.027721      4.000000
 -0.013861 -0.013861  0.041582     16.000000
 -0.027721 -0.027721  0.055442     16.000000
 -0.041582 -0.041582  0.069303     16.000000
 -0.055442 -0.055442  0.083163     16.000000
 -0.069303 -0.069303  0.097024     16.000000
  0.083163  0.083163 -0.055442     16.000000
  0.069303  0.069303 -0.041582     16.000000
  0.055442  0.055442 -0.027721     16.000000
  0.041582  0.041582 -0.013861     16.000000
  0.027721  0.027721  0.000000      8.000000
  0.000000 -0.000000  0.055442      4.000000
 -0.013861 -0.013861  0.069303     16.000000
 -0.027721 -0.027721  0.083163     16.000000
 -0.041582 -0.041582  0.097024     16.000000
 -0.055442 -0.055442  0.110884     16.000000
  0.097024  0.097024 -0.041582     16.000000
  0.083163  0.083163 -0.027721     16.000000
  0.069303  0.069303 -0.013861     16.000000
  0.055442  0.055442  0.000000      8.000000
  0.000000 -0.000000  0.083163      4.000000
 -0.013861 -0.013861  0.097024     16.000000
 -0.027721 -0.027721  0.110884     16.000000
 -0.041582 -0.041582  0.124745     16.000000
  0.110884  0.110884 -0.027721     16.000000
  0.097024  0.097024 -0.013861     16.000000
  0.083163  0.083163  0.000000      8.000000
  0.000000  0.000000  0.110884      4.000000
 -0.013861 -0.013861  0.124745     16.000000
 -0.027721 -0.027721  0.138605     16.000000
  0.124745  0.124745 -0.013861     16.000000
  0.110884  0.110884 -0.000000      8.000000
  0.000000  0.000000  0.138605      4.000000
 -0.013861 -0.013861  0.152466     16.000000
  0.138605  0.138605  0.000000      8.000000
  0.000000 -0.000000  0.166326      2.000000
 -0.027721 -0.000000 -0.000000      2.000000
 -0.041582 -0.013861  0.013861      8.000000
 -0.055442 -0.027721  0.027721      8.000000
 -0.069303 -0.041582  0.041582      8.000000
 -0.083163 -0.055442  0.055442      8.000000
 -0.097024 -0.069303  0.069303      8.000000
  0.055442  0.083163 -0.083163      8.000000
  0.041582  0.069303 -0.069303      8.000000
  0.027721  0.055442 -0.055442      8.000000
  0.013861  0.041582 -0.041582      8.000000
  0.000000  0.027721 -0.027721      4.000000
 -0.027721 -0.000000  0.055442      8.000000
 -0.041582 -0.013861  0.069303     16.000000
 -0.055442 -0.027721  0.083163     16.000000
 -0.069303 -0.041582  0.097024     16.000000
  0.083163  0.110884 -0.055442      8.000000
 -0.000000  0.027721  0.055442      8.000000
[...]
 -0.110884 -0.027721  0.000000      8.000000
 -0.110884 -0.000000  0.000000      2.000000
 -0.124745 -0.013861  0.013861      8.000000
 -0.138605 -0.027721  0.027721      8.000000
  0.013861  0.124745 -0.124745      8.000000
  0.000000  0.110884 -0.110884      4.000000
 -0.166326 -0.055442 -0.027721      8.000000
 -0.152466 -0.041582 -0.013861     16.000000
 -0.166326 -0.055442  0.000000      4.000000
 -0.138605 -0.027721  0.000000      8.000000
 -0.138605 -0.000000 -0.000000      2.000000
 -0.152466 -0.013861  0.013861      8.000000
 -0.000000  0.138605 -0.138605      4.000000
 -0.166326 -0.027721 -0.000000      4.000000
 -0.166326 -0.000000 -0.000000      1.000000

 Subroutine IBZKPT_HF returns following result:

 Found   1728 k-points in 1st BZ
 the following   1728 k-points will be used (e.g. in the exchange kernel)
 Following reciprocal coordinates:   # in IRBZ
  0.000000  0.000000  0.000000    0.00057870   1 t-inv F
  0.083333  0.000000 -0.000000    0.00057870   2 t-inv F
  0.166667 -0.000000  0.000000    0.00057870   3 t-inv F
  0.250000  0.000000  0.000000    0.00057870   4 t-inv F
  0.333333 -0.000000 -0.000000    0.00057870   5 t-inv F
  0.416667  0.000000 -0.000000    0.00057870   6 t-inv F
  0.500000  0.000000  0.000000    0.00057870   7 t-inv F
  0.083333  0.083333 -0.000000    0.00057870   8 t-inv F
  0.166667  0.083333 -0.000000    0.00057870   9 t-inv F
  0.250000  0.083333 -0.000000    0.00057870  10 t-inv F
  0.333333  0.083333  0.000000    0.00057870  11 t-inv F
  0.416667  0.083333 -0.000000    0.00057870  12 t-inv F
  0.500000  0.083333 -0.000000    0.00057870  13 t-inv F
 -0.416667  0.083333 -0.000000    0.00057870  14 t-inv F
[...]
      9       4.3945      0.00000
     10       7.0755      0.00000
     11       7.0755      0.00000
     12       7.0755      0.00000
     13       9.1053      0.00000
     14       9.1053      0.00000
     15      11.1975      0.00000
     16      16.8861      0.00000

[...]

 soft charge-density along one line, spin component           1
         0         1         2         3         4         5         6         7         8         9
 total charge-density along one line

------------------------ aborting loop because EDIFF is reached ----------------------------------------

  FORCE on cell =-STRESS in cart. coord.  units (eV):
  Direction    XX          YY          ZZ          XY          YZ          ZX
  Alpha Z    66.20822    66.20822    66.20822
  Ewald    -292.73207  -292.73207  -292.73207     0.00000     0.00000     0.00000
  Hartree   111.59108   111.59108   111.59108    -0.00000     0.00000    -0.00000
  E(xc)     -74.56317   -74.56317   -74.56317    -0.00000     0.00000    -0.00000
  Local     -70.24583   -70.24583   -70.24583    -0.00005     0.00005    -0.00005
  n-local   -30.11158   -30.07644   -30.14671     0.14591    -0.02391    -0.05678
  augment     4.10366     4.10366     4.10366     0.00004    -0.00004     0.00004
  Kinetic   286.17548   286.35720   285.99376    -3.16693     0.45986     1.22324
  Fock        0.00000     0.00000     0.00000     0.00000     0.00000     0.00000
  Total       0.42581     0.42581     0.42581    -0.00000    -0.00000     0.00000
  in kB      12.55639    12.55638    12.55638    -0.00000    -0.00000     0.00000

 VOLUME and BASIS-vectors are now :
  energy-cutoff  :      520.00
  volume of cell :       54.33
      direct lattice vectors                 reciprocal lattice vectors
    -3.006139295  0.000000000  3.006139295    -0.166326291 -0.166326291  0.166326291
     0.000000000  3.006139295  3.006139295     0.166326291  0.166326291  0.166326291
    -3.006139295  3.006139295  0.000000000    -0.166326291  0.166326291 -0.166326291

  length of vectors
     4.251322962  4.251322962  4.251322962     0.288085587  0.288085587  0.288085587

 FORCES acting on ions
    electron-ion (+dipol)            ewald-force                    non-local-force                 convergence-correction
   -.165E-04 -.757E-14 0.944E-14   0.161E-04 -.652E-14 -.395E-14   0.599E-06 0.739E-23 -.197E-23   -.197E-07 -.154E-10 -.153E-10
   0.151E-04 -.250E-10 -.281E-10   -.161E-04 0.625E-14 0.290E-14   0.812E-06 -.563E-23 0.407E-23   -.509E-07 0.124E-11 0.122E-11
   -.139E-05 -.250E-10 -.281E-10   -.195E-15 -.268E-15 -.105E-14   0.141E-05 0.176E-23 0.210E-23   -.706E-07 -.141E-10 -.141E-10

 POSITION                                       TOTAL-FORCE (eV/Angst)
      0.00000      0.00000      0.00000         0.000000      0.000000      0.000000
     -3.00614      3.00614      3.00614        -0.000000     -0.000000     -0.000000
    total drift:                               -0.000000     -0.000000     -0.000000

  FREE ENERGIE OF THE ION-ELECTRON SYSTEM (eV)
  free  energy   TOTEN  =        -7.93446615 eV

  energy  without entropy=       -7.93446615  energy(sigma->0) =       -7.93446615

 Found     4 degrees of freedom:

     directions for atom     1:  y
     directions for atom     2:  y
 Linear response reoptimize wavefunctions
 Linear response to external field (no local field effect), progress :
  Direction:   1
  LATTYP: Found a face centered cubic cell.
 ALAT       =     6.0122785905

[...]

----------------------------------------- Iteration    1(   1)  ---------------------------------------

 Free energy of the ion-electron system (eV)
  -Hartree energ DENC   =         0.00000000
  -V(xc)+E(xc)   XCENC  =         0.00000000
  PAW double counting   =         0.00000000        0.00000000
  entropy T*S    EENTRO =         0.00000000
  eigenvalues    EBANDS =        -0.23451678
  free energy    TOTEN  =        -0.23451678 eV

  energy without entropy =       -0.23451678

[...]

 change of polarisation eV/A/(eV/A) component  1 :     0.468    -0.029     0.011
 dielectric tensor                  component  1 :     2.559    -0.097     0.037

 Linear response to external field (no local field effect), progress :
  Direction:   2
  LATTYP: Found a face centered cubic cell.
 ALAT       =     6.0122785905

[...]

The dynamic configuration has the point symmetry C_1h.

[...]

 Linear response to external field (no local field effect), progress :
  Direction:   3
  LATTYP: Found a face centered cubic cell.
 ALAT       =     6.0122785905

[...]

 HEAD OF MICROSCOPIC STATIC DIELECTRIC TENSOR (INDEPENDENT PARTICLE, excluding Hartree and local field effects)
           2.558638    -0.000000     0.000000
          -0.000000     2.558640    -0.000000
           0.000000    -0.000000     2.558640

 Linear response to external field, progress :
  Direction:   1
  LATTYP: Found a face centered cubic cell.
 ALAT       =     6.0122785905

[...]

 PIEZOELECTRIC TENSOR FIELD DIRECTION 1  (e Angst)
     0.00005 -0.00000  0.00000           (  0.00000 -0.00000  0.00000)
    -0.00000 -0.00001 -0.00000           ( -0.00000  0.00000 -0.00000)
     0.00000  0.00000 -0.00001           (  0.00000 -0.00000  0.00000)

 PIEZOELECTRIC TENSOR FIELD DIRECTION 1  (C/m^2)
     0.00002 -0.00000  0.00000
    -0.00000 -0.00000 -0.00000
     0.00000  0.00000 -0.00000

      POSITION         DIRECTION 1           BORN EFFECTIVE CHARGE    (rigid.aug.   ionic)
      0.00000      0.00000      0.00000     1.31358 -0.00000  0.00000 (  2.01561  9.00000)
     -3.00614      3.00614      3.00614    -1.31426  0.00000  0.00000 ( -1.27241  7.00000)
    total drift (improves with k-points):  -0.00068 -0.00000  0.00000

[...]

 Linear response to external field, progress :
  Direction:   3
  LATTYP: Found a face centered cubic cell.
 ALAT       =     6.0122785905

[...]

 change of polarisation eV/A/(eV/A) component  3 :    -0.000     0.000     0.406
 dielectric tensor                  component  3 :    -0.000     0.001     2.352

 PIEZOELECTRIC TENSOR FIELD DIRECTION 3  (e Angst)
    -0.00000  0.00000 -0.00003           (  0.00000  0.00000 -0.00000)
     0.00000 -0.00000  0.00000           (  0.00000  0.00000  0.00000)
    -0.00003  0.00000 -0.00000           ( -0.00000  0.00000  0.00000)

 PIEZOELECTRIC TENSOR FIELD DIRECTION 3  (C/m^2)
    -0.00000  0.00000 -0.00001
     0.00000 -0.00000  0.00000
    -0.00001  0.00000 -0.00000

      POSITION         DIRECTION 3           BORN EFFECTIVE CHARGE    (rigid.aug.   ionic)
      0.00000      0.00000      0.00000    -0.00000  0.00000  1.31358 (  2.01561  9.00000)
     -3.00614      3.00614      3.00614     0.00000  0.00000 -1.31426 ( -1.27241  7.00000)
    total drift (improves with k-points):   0.00000  0.00000 -0.00068

[...]

 MACROSCOPIC STATIC DIELECTRIC TENSOR (including local field effects in DFT)
           2.351525    -0.000000     0.000000
          -0.000000     2.351530    -0.000000
           0.000000    -0.000000     2.351530

 Linear response:
   Degrees of freedom DOF   =            4
 Linear response progress:
  Degree of freedom:   1/  4
  LATTYP: Found a face centered cubic cell.
 ALAT       =     6.0122785905

[...]

 INTERNAL STRAIN TENSOR  FOR ION    1  DIRECTION 1   (eV/Angst):
    -0.00202  0.00000  0.00000
    -0.00000  0.00024 -0.00000
     0.00000  0.00000  0.00024

 POSITION                   FORCE-CONSTANT FOR ION    1 DIRECTION 1 (eV/Angst/Angst)
      0.00000      0.00000      0.00000        -0.883853      0.000000     -0.000000
     -3.00614      3.00614      3.00614         0.883853     -0.000000      0.000000
    total drift:                                0.000000      0.000000      0.000000

 BORN EFFECTIVE CHARGE FOR ION    1 DIRECTION 1 :   1.314  -0.000   0.000
                   rigid augmentation           :   2.016  -0.000   0.000
                   ionic contribution           :   9.000  -0.000   0.000
                   Berry contribution           :  -9.702   0.000  -0.000

 Linear response progress:
  Degree of freedom:   2/  4
  LATTYP: Found a face centered cubic cell.
 ALAT       =     6.0122785905

[...]

 Linear response progress:
  Degree of freedom:   4/  4
  LATTYP: Found a face centered cubic cell.
 ALAT       =     6.0122785905

[...]

The dynamic configuration has the point symmetry C_1h.

[...]

----------------------------------------- Iteration    8(  12)  ---------------------------------------

 Broyden mixing:
  rms(total) = 0.59904E-06    rms(broyden)= 0.59889E-06
  rms(prec ) = 0.13893E-05
  weight for this iteration     100.00

 eigenvalues of (default mixing * dielectric matrix)
  average eigenvalue GAMMA=   1.8707
  3.1695  2.9025  2.5731  2.2930  2.0301  1.6688  1.1185  1.0548  0.9817  0.9151

 Free energy of the ion-electron system (eV)
  -Hartree energ DENC   =        -0.18863947
  -V(xc)+E(xc)   XCENC  =         0.00085501
  PAW double counting   =         0.00001206       -0.00001306
  entropy T*S    EENTRO =        -0.00000000
  eigenvalues    EBANDS =        -0.35093501
  free energy    TOTEN  =        -0.53872048 eV

  energy without entropy =       -0.53872048

[...]

 k-point 476 :      -0.0000   -0.5000   -0.5000
  band No.  band energies     occupation
      1       0.0001      0.00000
      2      -0.0000      0.00000
      3      -0.0000      0.00000
      4      -0.0000      0.00000
      5      -0.0000      0.00000
      6       0.0000      0.00000
      7       0.0001      0.00000
      8       0.0000      0.00000
      9      -0.0000      0.00000
     10      -0.0000      0.00000
     11       0.0000      0.00000
     12      -0.0000      0.00000
     13      -0.0000      0.00000
     14      -0.0000      0.00000
     15       0.0049      0.00000
     16       0.0000      0.00000

------------------------ aborting loop because EDIFF is reached ----------------------------------------

 INTERNAL STRAIN TENSOR  FOR ION    2  DIRECTION 2   (eV/Angst):
    -0.00011 -0.00086  0.00000
    -0.00087 -0.00063  0.00000
     0.00000  0.00000 -0.00017

 POSITION                   FORCE-CONSTANT FOR ION    2 DIRECTION 2 (eV/Angst/Angst)
      0.00000      0.00000      0.00000        -0.000854      0.952623     -0.000000
     -3.00614      3.00614      3.00614         0.000854     -0.952623      0.000000
    total drift:                                0.000000      0.000000      0.000000

 BORN EFFECTIVE CHARGE FOR ION    2 DIRECTION 2 :  -0.000  -1.314   0.000
                   rigid augmentation           :  -0.000  -1.272  -0.000
                   ionic contribution           :  -0.000   7.000  -0.000
                   Berry contribution           :  -0.000  -7.042   0.000

  LATTYP: Found a face centered cubic cell.
 ALAT       =     6.0122785905

  Lattice vectors:

 A1 = (  -3.0061392953,   0.0000000000,   3.0061392953)
 A2 = (   0.0000000000,   3.0061392953,   3.0061392953)
 A3 = (  -3.0061392953,   3.0061392953,   0.0000000000)

Analysis of symmetry for initial positions (statically):
 Subroutine PRICEL returns:
 Original cell was already a primitive cell.

[...]

The static configuration has the point symmetry C_4v.

Analysis of symmetry for dynamics (positions and initial velocities):
 Subroutine PRICEL returns:
 Original cell was already a primitive cell.

 Routine SETGRP: Setting up the symmetry group for a
 face centered cubic supercell.

 Subroutine GETGRP returns: Found  8 space group operations
 (whereof  8 operations were pure point group operations)
 out of a pool of 48 trial point group operations.

The dynamic configuration has the point symmetry C_4v.

 Subroutine INISYM returns: Found  8 space group operations
 (whereof  8 operations are pure point group operations),
 and found     1 'primitive' translations

 MACROSCOPIC STATIC DIELECTRIC TENSOR (including local field effects in DFT)
           2.351525    -0.000000     0.000000
          -0.000000     2.351530    -0.000000
           0.000000    -0.000000     2.351530

 PIEZOELECTRIC TENSOR  for field in x, y, z        (e  Angst)
          XX          YY          ZZ          XY          YZ          ZX
  x     0.00005    -0.00001    -0.00001    -0.00000     0.00000     0.00000
  y    -0.00003     0.00001    -0.00002     0.00020    -0.00000     0.00000
  z    -0.00000    -0.00000    -0.00000     0.00000     0.00000    -0.00003

 PIEZOELECTRIC TENSOR  for field in x, y, z        (C/m^2)
          XX          YY          ZZ          XY          YZ          ZX
  x     0.00002    -0.00000    -0.00000    -0.00000     0.00000     0.00000
  y    -0.00000    -0.00000    -0.00000     0.00002     0.00000    -0.00000
  z     0.00000     0.00000     0.00000    -0.00000    -0.00000     0.00002

 BORN EFFECTIVE CHARGES (in e, cummulative output)
 ion    1
    1     1.31392    -0.00000    -0.00000
    2    -0.00000     1.31392    -0.00000
    3    -0.00000     0.00000     1.31392
 ion    2
    1    -1.31392     0.00000     0.00000
    2     0.00000    -1.31392     0.00000
    3     0.00000    -0.00000    -1.31392

 INTERNAL STRAIN TENSOR FOR ION    1 for displacements in x,y,z  (eV/Angst):
          X           Y           Z          XY          YZ          ZX
  x    -0.00202     0.00024     0.00024     0.00000    -0.00000    -0.00000
  y     0.00000     0.00000     0.00000    -0.00148    -0.00000     0.00000
  z    -0.00000     0.00000    -0.00000     0.00000     0.00000    -0.00148

 INTERNAL STRAIN TENSOR FOR ION    2 for displacements in x,y,z  (eV/Angst):
          X           Y           Z          XY          YZ          ZX
  x     0.00219    -0.00067    -0.00067    -0.00000     0.00000     0.00000
  y    -0.00000     0.00000     0.00000    -0.00087    -0.00000     0.00000
  z     0.00000    -0.00000     0.00000     0.00000     0.00000    -0.00086

 SECOND DERIVATIVES (NOT SYMMETRIZED)
               1X          1Y          1Z          2X          2Y          2Z
  1X    -0.883853    0.000000   -0.000000    0.883853   -0.000000    0.000000
  1Y     0.000000   -0.883863    0.000000   -0.000000    0.883863   -0.000000
  1Z    -0.000000    0.000000   -0.883863    0.000000   -0.000000    0.883863
  2X     0.952513   -0.000000    0.000000   -0.952513    0.000000   -0.000000
  2Y    -0.000000    0.952623   -0.000000    0.000000   -0.952623    0.000000
  2Z     0.000000   -0.000000    0.952623   -0.000000    0.000000   -0.952623

 Eigenvectors and eigenvalues of the dynamical matrix

   1 f  =    3.725917 THz    23.410628 2PiTHz  124.283214 cm-1    15.409160 meV
             X         Y         Z           dx          dy          dz
      0.000000  0.000000  0.000000    -0.000000   -0.342361   -0.000000
     -3.006139  3.006139  3.006139     0.000000    0.939568    0.000000

[...]

   3 f  =    3.725723 THz    23.409408 2PiTHz  124.276736 cm-1    15.408357 meV
             X         Y         Z           dx          dy          dz
      0.000000  0.000000  0.000000    -0.342377    0.000000    0.000000
     -3.006139  3.006139  3.006139     0.939563   -0.000000   -0.000000

   4 f/i=    0.044817 THz     0.281594 2PiTHz    1.494935 cm-1     0.185348 meV
             X         Y         Z           dx          dy          dz
      0.000000  0.000000  0.000000     0.939563    0.000000   -0.000000
     -3.006139  3.006139  3.006139     0.342377    0.000000   -0.000000

[...]

   6 f/i=    0.044881 THz     0.281995 2PiTHz    1.497063 cm-1     0.185612 meV
             X         Y         Z           dx          dy          dz
      0.000000  0.000000  0.000000     0.000000   -0.118555   -0.932059
     -3.006139  3.006139  3.006139     0.000000   -0.043199   -0.339625

 MACROSCOPIC STATIC DIELECTRIC TENSOR IONIC CONTRIBUTION
           6.257705    -0.000009    -0.000006
          -0.000009     6.257250     0.000000
          -0.000006     0.000000     6.257288

 ELASTIC MODULI IONIC CONTR (kBar)
 Direction    XX          YY          ZZ          XY          YZ          ZX
 XX          -0.0001      0.0000      0.0000      0.0000     -0.0000     -0.0000
 YY           0.0000     -0.0000     -0.0000     -0.0000      0.0000      0.0000
 ZZ           0.0000     -0.0000     -0.0000     -0.0000      0.0000      0.0000
 XY           0.0000     -0.0000     -0.0000     -0.0000     -0.0000      0.0000
 YZ          -0.0000      0.0000      0.0000     -0.0000     -0.0000      0.0000
 ZX          -0.0000      0.0000      0.0000      0.0000      0.0000     -0.0000

 PIEZOELECTRIC TENSOR IONIC CONTR  for field in x, y, z        (C/m^2)
          XX          YY          ZZ          XY          YZ          ZX
  x    -0.00089     0.00019     0.00019     0.00000    -0.00000    -0.00000
  y     0.00000    -0.00000    -0.00000    -0.00012    -0.00000     0.00000
  z     0.00000    -0.00000    -0.00000     0.00000     0.00000    -0.00012