 vasp.5.4.4.18Apr17-6-g9f103f2a35 (build Aug 24 2017 11:22:49) complex

 executed on             LinuxIFC date 2023.12.25  13:07:34

 INCAR:
 POTCAR:    PAW_PBE Ca_sv 06Sep2000
 POTCAR:    PAW_PBE O 08Apr2002

 POTCAR:    PAW_PBE Ca_sv 06Sep2000
   VRHFIN =Ca: 3s3p4s

   TITEL  = PAW_PBE Ca_sv 06Sep2000
   POMASS =   40.078; ZVAL   =   10.000    mass and valenz
   ENMAX  =  266.622; ENMIN  =  199.967 eV

 POTCAR:    PAW_PBE O 08Apr2002
   VRHFIN =O: s2p4

   TITEL  = PAW_PBE O 08Apr2002
   POMASS =   16.000; ZVAL   =    6.000    mass and valenz
   ENMAX  =  400.000; ENMIN  =  300.000 eV

  PAW_PBE Ca_sv 06Sep2000               :
  PAW_PBE O 08Apr2002                   :

 POSCAR: Ca1 O1
  positions in direct lattice
 exchange correlation table for  LEXCH =        8
   RHO(1)=    0.500       N(1)  =     2000
   RHO(2)=  100.500       N(2)  =     4000

 ion  position               nearest neighbor table
   1  0.000  0.000  0.000-   2 2.40   2 2.40   2 2.40   2 2.40   2 2.40   2 2.40
   2  0.500  0.500  0.500-   1 2.40   1 2.40   1 2.40   1 2.40   1 2.40   1 2.40

  LATTYP: Found a face centered cubic cell.
 ALAT       =     4.8071110228

  Lattice vectors:

 A1 = (  -2.4035555114,   0.0000000000,   2.4035555114)
 A2 = (   0.0000000000,   2.4035555114,   2.4035555114)
 A3 = (  -2.4035555114,   2.4035555114,   0.0000000000)

Analysis of symmetry for initial positions (statically):
 Subroutine PRICEL returns:
 Original cell was already a primitive cell.

 Routine SETGRP: Setting up the symmetry group for a
 face centered cubic supercell.

 Subroutine GETGRP returns: Found  8 space group operations
 (whereof  8 operations were pure point group operations)
 out of a pool of 48 trial point group operations.

The static configuration has the point symmetry C_4v.

Analysis of symmetry for dynamics (positions and initial velocities):
 Subroutine PRICEL returns:
 Original cell was already a primitive cell.

[...]

The dynamic configuration has the point symmetry C_4v.

 Subroutine INISYM returns: Found  8 space group operations
 (whereof  8 operations are pure point group operations),
 and found     1 'primitive' translations

 KPOINTS: pymatgen with grid density = 3000 / numb

Automatic generation of k-mesh.
Space group operators:
 irot       det(A)        alpha          n_x          n_y          n_z        tau_x        tau_y        tau_z
    1     1.000000     0.000000     1.000000     0.000000     0.000000     0.000000     0.000000     0.000000
    2     1.000000    90.000000    -1.000000    -0.000000     0.000000     0.000000     0.000000     0.000000
    3    -1.000000   180.000000     0.000000     0.000000     1.000000     0.000000     0.000000     0.000000
    4    -1.000000   180.000000     0.000000     0.707107     0.707107     0.000000     0.000000     0.000000
    5    -1.000000   180.000000     0.000000    -1.000000    -0.000000     0.000000     0.000000     0.000000
    6     1.000000    90.000000     1.000000     0.000000    -0.000000     0.000000     0.000000     0.000000
    7     1.000000   180.000000     1.000000     0.000000     0.000000     0.000000     0.000000     0.000000
    8    -1.000000   180.000000     0.000000    -0.707107     0.707107     0.000000     0.000000     0.000000

 Subroutine IBZKPT returns following result:

 Found    163 irreducible k-points:

 Following reciprocal coordinates:
            Coordinates               Weight
  0.000000  0.000000  0.000000      1.000000
  0.083333  0.000000  0.000000      8.000000
  0.166667  0.000000  0.000000      8.000000
  0.250000 -0.000000  0.000000      8.000000
  0.333333 -0.000000 -0.000000      8.000000
  0.416667 -0.000000 -0.000000      8.000000
  0.500000 -0.000000  0.000000      4.000000
  0.083333  0.083333  0.000000      4.000000
  0.166667  0.083333 -0.000000     16.000000
  0.250000  0.083333  0.000000     16.000000
  0.333333  0.083333  0.000000     16.000000
  0.416667  0.083333  0.000000     16.000000
  0.500000  0.083333 -0.000000     16.000000
 -0.416667  0.083333 -0.000000     16.000000
 -0.333333  0.083333  0.000000     16.000000
 -0.250000  0.083333  0.000000     16.000000
 -0.166667  0.083333 -0.000000     16.000000
 -0.083333  0.083333 -0.000000      8.000000
  0.166667  0.166667  0.000000      4.000000
  0.250000  0.166667  0.000000     16.000000
  0.333333  0.166667  0.000000     16.000000
  0.416667  0.166667 -0.000000     16.000000
  0.500000  0.166667 -0.000000     16.000000
 -0.416667  0.166667  0.000000     16.000000
 -0.333333  0.166667 -0.000000     16.000000
 -0.250000  0.166667  0.000000     16.000000
 -0.166667  0.166667 -0.000000      8.000000
  0.250000  0.250000  0.000000      4.000000
  0.333333  0.250000  0.000000     16.000000
  0.416667  0.250000  0.000000     16.000000
  0.500000  0.250000  0.000000     16.000000
 -0.416667  0.250000 -0.000000     16.000000
 -0.333333  0.250000 -0.000000     16.000000
 -0.250000  0.250000  0.000000      8.000000
  0.333333  0.333333  0.000000      4.000000
  0.416667  0.333333  0.000000     16.000000
  0.500000  0.333333  0.000000     16.000000
 -0.416667  0.333333 -0.000000     16.000000
 -0.333333  0.333333  0.000000      8.000000
  0.416667  0.416667  0.000000      4.000000
  0.500000  0.416667  0.000000     16.000000
 -0.416667  0.416667  0.000000      8.000000
  0.500000  0.500000  0.000000      2.000000
  0.083333  0.000000  0.083333      2.000000
  0.166667 -0.000000  0.083333      8.000000
  0.250000  0.000000  0.083333      8.000000
  0.333333  0.000000  0.083333      8.000000
  0.416667  0.000000  0.083333      8.000000
  0.500000 -0.000000  0.083333      8.000000
 -0.416667 -0.000000  0.083333      8.000000
 -0.333333 -0.000000  0.083333      8.000000
 -0.250000  0.000000  0.083333      8.000000
 -0.166667 -0.000000  0.083333      8.000000
 -0.083333 -0.000000  0.083333      4.000000
  0.250000  0.166667  0.083333      8.000000
  0.333333  0.166667  0.083333     16.000000
  0.416667  0.166667  0.083333     16.000000
  0.500000  0.166667  0.083333     16.000000
 -0.416667  0.166667  0.083333      8.000000
  0.166667  0.250000  0.083333      8.000000
[...]
  0.333333 -0.083333  0.250000      8.000000
  0.333333  0.000000  0.333333      2.000000
  0.416667  0.000000  0.333333      8.000000
  0.500000  0.000000  0.333333      8.000000
 -0.416667  0.000000  0.333333      8.000000
 -0.333333  0.000000  0.333333      4.000000
  0.416667 -0.250000  0.333333      8.000000
  0.416667 -0.166667  0.333333     16.000000
  0.500000 -0.166667  0.333333      4.000000
  0.416667 -0.083333  0.333333      8.000000
  0.416667  0.000000  0.416667      2.000000
  0.500000  0.000000  0.416667      8.000000
 -0.416667  0.000000  0.416667      4.000000
  0.500000 -0.083333  0.416667      4.000000
  0.500000  0.000000  0.500000      1.000000

 Following cartesian coordinates:
            Coordinates               Weight
  0.000000  0.000000  0.000000      1.000000
 -0.017335 -0.017335  0.017335      8.000000
 -0.034671 -0.034671  0.034671      8.000000
 -0.052006 -0.052006  0.052006      8.000000
 -0.069342 -0.069342  0.069342      8.000000
 -0.086677 -0.086677  0.086677      8.000000
 -0.104013 -0.104013  0.104013      4.000000
  0.000000  0.000000  0.034671      4.000000
 -0.017335 -0.017335  0.052006     16.000000
 -0.034671 -0.034671  0.069342     16.000000
 -0.052006 -0.052006  0.086677     16.000000
 -0.069342 -0.069342  0.104013     16.000000
 -0.086677 -0.086677  0.121348     16.000000
  0.104013  0.104013 -0.069342     16.000000
  0.086677  0.086677 -0.052006     16.000000
  0.069342  0.069342 -0.034671     16.000000
  0.052006  0.052006 -0.017335     16.000000
  0.034671  0.034671  0.000000      8.000000
 -0.000000 -0.000000  0.069342      4.000000
 -0.017335 -0.017335  0.086677     16.000000
 -0.034671 -0.034671  0.104013     16.000000
 -0.052006 -0.052006  0.121348     16.000000
 -0.069342 -0.069342  0.138683     16.000000
  0.121348  0.121348 -0.052006     16.000000
  0.104013  0.104013 -0.034671     16.000000
  0.086677  0.086677 -0.017335     16.000000
  0.069342  0.069342  0.000000      8.000000
 -0.000000  0.000000  0.104013      4.000000
 -0.017335 -0.017335  0.121348     16.000000
 -0.034671 -0.034671  0.138683     16.000000
 -0.052006 -0.052006  0.156019     16.000000
  0.138683  0.138683 -0.034671     16.000000
  0.121348  0.121348 -0.017335     16.000000
  0.104013  0.104013  0.000000      8.000000
  0.000000  0.000000  0.138683      4.000000
 -0.017335 -0.017335  0.156019     16.000000
 -0.034671 -0.034671  0.173354     16.000000
  0.156019  0.156019 -0.017335     16.000000
  0.138683  0.138683 -0.000000      8.000000
  0.000000  0.000000  0.173354      4.000000
 -0.017335 -0.017335  0.190690     16.000000
  0.173354  0.173354  0.000000      8.000000
 -0.000000  0.000000  0.208025      2.000000
 -0.034671  0.000000  0.000000      2.000000
 -0.052006 -0.017335  0.017335      8.000000
 -0.069342 -0.034671  0.034671      8.000000
 -0.086677 -0.052006  0.052006      8.000000
 -0.104013 -0.069342  0.069342      8.000000
 -0.121348 -0.086677  0.086677      8.000000
  0.069342  0.104013 -0.104013      8.000000
  0.052006  0.086677 -0.086677      8.000000
  0.034671  0.069342 -0.069342      8.000000
  0.017335  0.052006 -0.052006      8.000000
  0.000000  0.034671 -0.034671      4.000000
 -0.034671 -0.000000  0.069342      8.000000
 -0.052006 -0.017335  0.086677     16.000000
 -0.069342 -0.034671  0.104013     16.000000
 -0.086677 -0.052006  0.121348     16.000000
  0.104013  0.138683 -0.069342      8.000000
  0.000000  0.034671  0.069342      8.000000
[...]
 -0.138683 -0.034671  0.000000      8.000000
 -0.138683 -0.000000  0.000000      2.000000
 -0.156019 -0.017335  0.017335      8.000000
 -0.173354 -0.034671  0.034671      8.000000
  0.017335  0.156019 -0.156019      8.000000
  0.000000  0.138683 -0.138683      4.000000
 -0.208025 -0.069342 -0.034671      8.000000
 -0.190690 -0.052006 -0.017335     16.000000
 -0.208025 -0.069342  0.000000      4.000000
 -0.173354 -0.034671  0.000000      8.000000
 -0.173354  0.000000  0.000000      2.000000
 -0.190690 -0.017335  0.017335      8.000000
 -0.000000  0.173354 -0.173354      4.000000
 -0.208025 -0.034671  0.000000      4.000000
 -0.208025  0.000000  0.000000      1.000000

 Subroutine IBZKPT_HF returns following result:

 Found   1728 k-points in 1st BZ
 the following   1728 k-points will be used (e.g. in the exchange kernel)
 Following reciprocal coordinates:   # in IRBZ
  0.000000  0.000000  0.000000    0.00057870   1 t-inv F
  0.083333  0.000000  0.000000    0.00057870   2 t-inv F
  0.166667  0.000000  0.000000    0.00057870   3 t-inv F
  0.250000 -0.000000  0.000000    0.00057870   4 t-inv F
  0.333333 -0.000000 -0.000000    0.00057870   5 t-inv F
  0.416667 -0.000000 -0.000000    0.00057870   6 t-inv F
  0.500000 -0.000000  0.000000    0.00057870   7 t-inv F
  0.083333  0.083333  0.000000    0.00057870   8 t-inv F
  0.166667  0.083333 -0.000000    0.00057870   9 t-inv F
  0.250000  0.083333  0.000000    0.00057870  10 t-inv F
  0.333333  0.083333  0.000000    0.00057870  11 t-inv F
  0.416667  0.083333  0.000000    0.00057870  12 t-inv F
[...]
      9       7.0566      0.00000
     10       8.5710      0.00000
     11       8.5710      0.00000
     12       8.5710      0.00000
     13      10.0758      0.00000
     14      10.0758      0.00000
     15      17.4165      0.00000
     16      24.8086      0.00000

[...]

 soft charge-density along one line, spin component           1
         0         1         2         3         4         5         6         7         8         9
 total charge-density along one line

------------------------ aborting loop because EDIFF is reached ----------------------------------------

  FORCE on cell =-STRESS in cart. coord.  units (eV):
  Direction    XX          YY          ZZ          XY          YZ          ZX
  Alpha Z    86.48331    86.48331    86.48331
  Ewald    -376.59123  -376.59123  -376.59123     0.00000     0.00000     0.00000
  Hartree    97.36890    97.36890    97.36890    -0.00000     0.00000    -0.00000
  E(xc)     -74.79843   -74.79843   -74.79843    -0.00000     0.00000    -0.00000
  Local      42.07430    42.07430    42.07430    -0.00002     0.00002    -0.00002
  n-local   -63.71120   -65.01411   -62.40829     2.25335    -0.30618    -0.83233
  augment    32.59368    32.59368    32.59368     0.00002    -0.00002     0.00002
  Kinetic   256.96262   258.25634   255.66891    -7.75782     1.07078     2.87155
  Fock        0.00000     0.00000     0.00000     0.00000     0.00000     0.00000
  Total       0.38196     0.38196     0.38196    -0.00000     0.00000     0.00000
  in kB      22.03598    22.03598    22.03598    -0.00000     0.00000     0.00000

 VOLUME and BASIS-vectors are now :
  energy-cutoff  :      520.00
  volume of cell :       27.77
      direct lattice vectors                 reciprocal lattice vectors
    -2.403555511  0.000000000  2.403555511    -0.208025152 -0.208025152  0.208025152
     0.000000000  2.403555511  2.403555511     0.208025152  0.208025152  0.208025152
    -2.403555511  2.403555511  0.000000000    -0.208025152  0.208025152 -0.208025152

  length of vectors
     3.399140802  3.399140802  3.399140802     0.360310132  0.360310132  0.360310132

 FORCES acting on ions
    electron-ion (+dipol)            ewald-force                    non-local-force                 convergence-correction
   -.258E-04 0.230E-14 0.159E-13   0.241E-04 0.224E-14 0.306E-14   0.143E-05 -.414E-22 -.302E-22   0.982E-06 0.352E-10 0.352E-10
   0.231E-04 0.112E-11 0.750E-12   -.241E-04 -.261E-14 -.210E-14   0.602E-06 0.442E-23 0.682E-23   -.208E-06 0.129E-12 0.144E-12
   -.270E-05 0.112E-11 0.766E-12   0.408E-15 -.370E-15 0.966E-15   0.203E-05 -.370E-22 -.234E-22   0.774E-06 0.353E-10 0.354E-10

 POSITION                                       TOTAL-FORCE (eV/Angst)
      0.00000      0.00000      0.00000         0.000001      0.000000     -0.000000
     -2.40356      2.40356      2.40356        -0.000001     -0.000000      0.000000
    total drift:                                0.000000      0.000000      0.000000

  FREE ENERGIE OF THE ION-ELECTRON SYSTEM (eV)
  free  energy   TOTEN  =       -12.80123730 eV

  energy  without entropy=      -12.80123730  energy(sigma->0) =      -12.80123730

 Found     4 degrees of freedom:

     directions for atom     1:  y
     directions for atom     2:  y
 Linear response reoptimize wavefunctions
 Linear response to external field (no local field effect), progress :
  Direction:   1
  LATTYP: Found a face centered cubic cell.
 ALAT       =     4.8071110228

[...]

----------------------------------------- Iteration    1(   1)  ---------------------------------------

 Free energy of the ion-electron system (eV)
  -Hartree energ DENC   =         0.00000000
  -V(xc)+E(xc)   XCENC  =         0.00000000
  PAW double counting   =         0.00000000        0.00000000
  entropy T*S    EENTRO =         0.00000000
  eigenvalues    EBANDS =        -0.20998333
  free energy    TOTEN  =        -0.20998333 eV

  energy without entropy =       -0.20998333

[...]

 change of polarisation eV/A/(eV/A) component  1 :     0.448    -0.062     0.015
 dielectric tensor                  component  1 :     3.918    -0.401     0.095

 Linear response to external field (no local field effect), progress :
  Direction:   2
  LATTYP: Found a face centered cubic cell.
 ALAT       =     4.8071110228

[...]

The dynamic configuration has the point symmetry C_1h.

[...]

 Linear response to external field (no local field effect), progress :
  Direction:   3
  LATTYP: Found a face centered cubic cell.
 ALAT       =     4.8071110228

[...]

 HEAD OF MICROSCOPIC STATIC DIELECTRIC TENSOR (INDEPENDENT PARTICLE, excluding Hartree and local field effects)
           3.917865    -0.000000     0.000000
          -0.000000     3.917988    -0.000000
           0.000000    -0.000000     3.917988

 Linear response to external field, progress :
  Direction:   1
  LATTYP: Found a face centered cubic cell.
 ALAT       =     4.8071110228

[...]

 PIEZOELECTRIC TENSOR FIELD DIRECTION 1  (e Angst)
     0.00006  0.00000  0.00000           ( -0.00000  0.00000  0.00000)
     0.00000  0.00001  0.00000           (  0.00000  0.00000 -0.00000)
     0.00000 -0.00000  0.00001           (  0.00000 -0.00000  0.00000)

 PIEZOELECTRIC TENSOR FIELD DIRECTION 1  (C/m^2)
     0.00003  0.00000  0.00000
     0.00000  0.00001  0.00000
     0.00000 -0.00000  0.00001

      POSITION         DIRECTION 1           BORN EFFECTIVE CHARGE    (rigid.aug.   ionic)
      0.00000      0.00000      0.00000     2.35616  0.00000  0.00000 ( -2.63812 10.00000)
     -2.40356      2.40356      2.40356    -2.35614 -0.00000 -0.00000 ( -0.62893  6.00000)
    total drift (improves with k-points):   0.00002 -0.00000 -0.00000

[...]

 Linear response to external field, progress :
  Direction:   3
  LATTYP: Found a face centered cubic cell.
 ALAT       =     4.8071110228

[...]

 change of polarisation eV/A/(eV/A) component  3 :    -0.000     0.001     0.428
 dielectric tensor                  component  3 :    -0.000     0.008     3.787

 PIEZOELECTRIC TENSOR FIELD DIRECTION 3  (e Angst)
    -0.00000 -0.00000 -0.00008           (  0.00000 -0.00000  0.00000)
    -0.00000 -0.00000 -0.00000           ( -0.00000  0.00000 -0.00000)
    -0.00008 -0.00000  0.00001           (  0.00000 -0.00000  0.00000)

 PIEZOELECTRIC TENSOR FIELD DIRECTION 3  (C/m^2)
    -0.00000 -0.00000 -0.00005
    -0.00000 -0.00000 -0.00000
    -0.00005 -0.00000  0.00001

      POSITION         DIRECTION 3           BORN EFFECTIVE CHARGE    (rigid.aug.   ionic)
      0.00000      0.00000      0.00000     0.00001 -0.00000  2.35620 ( -2.63812 10.00000)
     -2.40356      2.40356      2.40356    -0.00001  0.00000 -2.35623 ( -0.62893  6.00000)
    total drift (improves with k-points):  -0.00000 -0.00000 -0.00003

[...]

 MACROSCOPIC STATIC DIELECTRIC TENSOR (including local field effects in DFT)
           3.786747    -0.000000     0.000000
          -0.000000     3.786891    -0.000000
           0.000000    -0.000000     3.786891

 Linear response:
   Degrees of freedom DOF   =            4
 Linear response progress:
  Degree of freedom:   1/  4
  LATTYP: Found a face centered cubic cell.
 ALAT       =     4.8071110228

[...]

 INTERNAL STRAIN TENSOR  FOR ION    1  DIRECTION 1   (eV/Angst):
     0.00084 -0.00000  0.00000
    -0.00000 -0.00047  0.00000
     0.00000  0.00000 -0.00047

 POSITION                   FORCE-CONSTANT FOR ION    1 DIRECTION 1 (eV/Angst/Angst)
      0.00000      0.00000      0.00000        -3.126318     -0.000000      0.000000
     -2.40356      2.40356      2.40356         3.126318      0.000000     -0.000000
    total drift:                                0.000000      0.000000      0.000000

 BORN EFFECTIVE CHARGE FOR ION    1 DIRECTION 1 :   2.356  -0.000   0.000
                   rigid augmentation           :  -2.638  -0.000   0.000
                   ionic contribution           :  10.000  -0.000   0.000
                   Berry contribution           :  -5.006   0.000  -0.000

 Linear response progress:
  Degree of freedom:   2/  4
  LATTYP: Found a face centered cubic cell.
 ALAT       =     4.8071110228

[...]

 Linear response progress:
  Degree of freedom:   4/  4
  LATTYP: Found a face centered cubic cell.
 ALAT       =     4.8071110228

[...]

The dynamic configuration has the point symmetry C_1h.

[...]

----------------------------------------- Iteration    8(  14)  ---------------------------------------

 Broyden mixing:
  rms(total) = 0.52674E-05    rms(broyden)= 0.52674E-05
  rms(prec ) = 0.95604E-05
  weight for this iteration     100.00

 eigenvalues of (default mixing * dielectric matrix)
  average eigenvalue GAMMA=   1.7509
  3.4736  2.8886  2.5551  2.5551  2.1892  1.9080  1.4558  1.0008  1.0008  0.8905
  0.6873  0.4065

 Free energy of the ion-electron system (eV)
  -Hartree energ DENC   =        -0.12245104
  -V(xc)+E(xc)   XCENC  =         0.00023904
  PAW double counting   =         0.00002263       -0.00002613
  entropy T*S    EENTRO =        -0.00000000
  eigenvalues    EBANDS =        -0.24225440
  free energy    TOTEN  =        -0.36446990 eV

  energy without entropy =       -0.36446990

[...]

 k-point 476 :       0.0000   -0.5000   -0.5000
  band No.  band energies     occupation
      1      -0.0001      0.00000
      2      -0.0001      0.00000
      3      -0.0001      0.00000
      4      -0.0001      0.00000
      5       0.0003      0.00000
      6       0.0002      0.00000
      7       0.0002      0.00000
      8       0.0003      0.00000
      9      -0.0000      0.00000
     10      -0.0000      0.00000
     11      -0.0001      0.00000
     12      -0.0001      0.00000
     13      -0.0001      0.00000
     14       0.0002      0.00000
     15      -0.0000      0.00000
     16       0.0002      0.00000

------------------------ aborting loop because EDIFF is reached ----------------------------------------

 INTERNAL STRAIN TENSOR  FOR ION    2  DIRECTION 2   (eV/Angst):
     0.00021  0.00021  0.00000
     0.00021  0.00126  0.00000
     0.00000  0.00000 -0.00083

 POSITION                   FORCE-CONSTANT FOR ION    2 DIRECTION 2 (eV/Angst/Angst)
      0.00000      0.00000      0.00000         0.000018      3.108183      0.000000
     -2.40356      2.40356      2.40356        -0.000018     -3.108183     -0.000000
    total drift:                                0.000000      0.000000      0.000000

 BORN EFFECTIVE CHARGE FOR ION    2 DIRECTION 2 :   0.000  -2.356   0.000
                   rigid augmentation           :  -0.000  -0.629  -0.000
                   ionic contribution           :  -0.000   6.000  -0.000
                   Berry contribution           :   0.000  -7.727   0.000

  LATTYP: Found a face centered cubic cell.
 ALAT       =     4.8071110228

  Lattice vectors:

 A1 = (  -2.4035555114,   0.0000000000,   2.4035555114)
 A2 = (   0.0000000000,   2.4035555114,   2.4035555114)
 A3 = (  -2.4035555114,   2.4035555114,   0.0000000000)

Analysis of symmetry for initial positions (statically):
 Subroutine PRICEL returns:
 Original cell was already a primitive cell.

[...]

The static configuration has the point symmetry C_4v.

Analysis of symmetry for dynamics (positions and initial velocities):
 Subroutine PRICEL returns:
 Original cell was already a primitive cell.

 Routine SETGRP: Setting up the symmetry group for a
 face centered cubic supercell.

 Subroutine GETGRP returns: Found  8 space group operations
 (whereof  8 operations were pure point group operations)
 out of a pool of 48 trial point group operations.

The dynamic configuration has the point symmetry C_4v.

 Subroutine INISYM returns: Found  8 space group operations
 (whereof  8 operations are pure point group operations),
 and found     1 'primitive' translations

 MACROSCOPIC STATIC DIELECTRIC TENSOR (including local field effects in DFT)
           3.786747    -0.000000     0.000000
          -0.000000     3.786891    -0.000000
           0.000000    -0.000000     3.786891

 PIEZOELECTRIC TENSOR  for field in x, y, z        (e  Angst)
          XX          YY          ZZ          XY          YZ          ZX
  x     0.00006     0.00001     0.00001     0.00000    -0.00000     0.00000
  y    -0.00000     0.00003    -0.00005     0.00024     0.00000     0.00000
  z    -0.00000    -0.00000     0.00001    -0.00000    -0.00000    -0.00008

 PIEZOELECTRIC TENSOR  for field in x, y, z        (C/m^2)
          XX          YY          ZZ          XY          YZ          ZX
  x     0.00003     0.00001     0.00001    -0.00000    -0.00000     0.00000
  y    -0.00000     0.00000    -0.00000     0.00005     0.00000    -0.00000
  z     0.00000     0.00000     0.00000    -0.00000    -0.00000     0.00005

 BORN EFFECTIVE CHARGES (in e, cummulative output)
 ion    1
    1     2.35615     0.00000     0.00000
    2    -0.00004     2.35624    -0.00000
    3     0.00001    -0.00000     2.35621
 ion    2
    1    -2.35615    -0.00000    -0.00000
    2     0.00004    -2.35624     0.00000
    3    -0.00001     0.00000    -2.35621

 INTERNAL STRAIN TENSOR FOR ION    1 for displacements in x,y,z  (eV/Angst):
          X           Y           Z          XY          YZ          ZX
  x     0.00084    -0.00047    -0.00047     0.00000     0.00000    -0.00000
  y     0.00000     0.00000     0.00000    -0.00348    -0.00000     0.00000
  z     0.00000     0.00000     0.00000     0.00000     0.00000    -0.00347

 INTERNAL STRAIN TENSOR FOR ION    2 for displacements in x,y,z  (eV/Angst):
          X           Y           Z          XY          YZ          ZX
  x    -0.00076    -0.00034    -0.00034     0.00000     0.00000    -0.00000
  y     0.00000     0.00000     0.00000     0.00021     0.00000    -0.00000
  z     0.00000     0.00000     0.00000    -0.00000    -0.00000     0.00021

 SECOND DERIVATIVES (NOT SYMMETRIZED)
               1X          1Y          1Z          2X          2Y          2Z
  1X    -3.126318    0.000000   -0.000000    3.126318   -0.000000    0.000000
  1Y     0.000000   -3.126335    0.000000   -0.000000    3.126335   -0.000000
  1Z    -0.000000    0.000000   -3.126335    0.000000   -0.000000    3.126335
  2X     3.108104   -0.000000    0.000000   -3.108104    0.000000   -0.000000
  2Y    -0.000000    3.108183   -0.000000    0.000000   -3.108183    0.000000
  2Z     0.000000   -0.000000    3.108183   -0.000000    0.000000   -3.108183

 Eigenvectors and eigenvalues of the dynamical matrix

   1 f  =    8.157351 THz    51.254149 2PiTHz  272.099938 cm-1    33.736105 meV
             X         Y         Z           dx          dy          dz
      0.000000  0.000000  0.000000    -0.000000    0.535263    0.000000
     -2.403555  2.403556  2.403556     0.000000   -0.844685    0.000000

[...]

   3 f  =    8.157271 THz    51.253645 2PiTHz  272.097262 cm-1    33.735773 meV
             X         Y         Z           dx          dy          dz
      0.000000  0.000000  0.000000    -0.535267   -0.000000   -0.000000
     -2.403555  2.403556  2.403556     0.844683    0.000000   -0.000000

   4 f/i=    0.010738 THz     0.067468 2PiTHz    0.358179 cm-1     0.044409 meV
             X         Y         Z           dx          dy          dz
      0.000000  0.000000  0.000000    -0.000000    0.530041   -0.657685
     -2.403555  2.403556  2.403556    -0.000000    0.335878   -0.416764

[...]

   6 f/i=    0.010775 THz     0.067701 2PiTHz    0.359414 cm-1     0.044562 meV
             X         Y         Z           dx          dy          dz
      0.000000  0.000000  0.000000     0.844683    0.000000    0.000000
     -2.403555  2.403556  2.403556     0.535267    0.000000    0.000000

 MACROSCOPIC STATIC DIELECTRIC TENSOR IONIC CONTRIBUTION
          11.604098    -0.000196     0.000063
          -0.000196    11.604758    -0.000000
           0.000063    -0.000000    11.604516

 ELASTIC MODULI IONIC CONTR (kBar)
 Direction    XX          YY          ZZ          XY          YZ          ZX
 XX          -0.0000      0.0000      0.0000      0.0000     -0.0000      0.0000
 YY           0.0000     -0.0000     -0.0000     -0.0000      0.0000     -0.0000
 ZZ           0.0000     -0.0000     -0.0000     -0.0000      0.0000     -0.0000
 XY           0.0000     -0.0000     -0.0000     -0.0001     -0.0000      0.0000
 YZ          -0.0000      0.0000      0.0000     -0.0000     -0.0000      0.0000
 ZX           0.0000     -0.0000     -0.0000      0.0000      0.0000     -0.0001

 PIEZOELECTRIC TENSOR IONIC CONTR  for field in x, y, z        (C/m^2)
          XX          YY          ZZ          XY          YZ          ZX
  x     0.00035    -0.00003    -0.00003    -0.00000     0.00000    -0.00000
  y    -0.00000     0.00000     0.00000    -0.00080    -0.00000     0.00000
  z     0.00000    -0.00000    -0.00000     0.00000     0.00000    -0.00080