 vasp.5.4.4.18Apr17-6-g9f103f2a35 (build Aug 24 2017 11:22:49) complex

 executed on             LinuxIFC date 2023.12.25  13:07:16

 INCAR:
 POTCAR:    PAW_PBE Li_sv 10Sep2004
 POTCAR:    PAW_PBE F 08Apr2002

 POTCAR:    PAW_PBE Li_sv 10Sep2004
   VRHFIN =Li: 1s2s2p

   TITEL  = PAW_PBE Li_sv 10Sep2004
   POMASS =    7.010; ZVAL   =    3.000    mass and valenz
   ENMAX  =  499.034; ENMIN  =  374.276 eV

 POTCAR:    PAW_PBE F 08Apr2002
   VRHFIN =F: s2p5

   TITEL  = PAW_PBE F 08Apr2002
   POMASS =   18.998; ZVAL   =    7.000    mass and valenz
   ENMAX  =  400.000; ENMIN  =  300.000 eV

  PAW_PBE Li_sv 10Sep2004               :
  PAW_PBE F 08Apr2002                   :

 POSCAR: Li1 F1
  positions in direct lattice
 exchange correlation table for  LEXCH =        8
   RHO(1)=    0.500       N(1)  =     2000
   RHO(2)=  100.500       N(2)  =     4000

 ion  position               nearest neighbor table
   1  0.000  0.000  0.000-   2 2.04   2 2.04   2 2.04   2 2.04   2 2.04   2 2.04
   2  0.500  0.500  0.500-   1 2.04   1 2.04   1 2.04   1 2.04   1 2.04   1 2.04

  LATTYP: Found a face centered cubic cell.
 ALAT       =     4.0834268340

  Lattice vectors:

 A1 = (  -2.0417134170,   0.0000000000,   2.0417134170)
 A2 = (   0.0000000000,   2.0417134170,   2.0417134170)
 A3 = (  -2.0417134170,   2.0417134170,   0.0000000000)

Analysis of symmetry for initial positions (statically):
 Subroutine PRICEL returns:
 Original cell was already a primitive cell.

 Routine SETGRP: Setting up the symmetry group for a
 face centered cubic supercell.

 Subroutine GETGRP returns: Found  8 space group operations
 (whereof  8 operations were pure point group operations)
 out of a pool of 48 trial point group operations.

The static configuration has the point symmetry C_4v.

Analysis of symmetry for dynamics (positions and initial velocities):
 Subroutine PRICEL returns:
 Original cell was already a primitive cell.

[...]

The dynamic configuration has the point symmetry C_4v.

 Subroutine INISYM returns: Found  8 space group operations
 (whereof  8 operations are pure point group operations),
 and found     1 'primitive' translations

 KPOINTS: pymatgen with grid density = 3000 / numb

Automatic generation of k-mesh.
Space group operators:
 irot       det(A)        alpha          n_x          n_y          n_z        tau_x        tau_y        tau_z
    1     1.000000     0.000000     1.000000     0.000000     0.000000     0.000000     0.000000     0.000000
    2     1.000000    90.000000    -1.000000    -0.000000    -0.000000     0.000000     0.000000     0.000000
    3    -1.000000   180.000000    -0.000000     0.000000    -1.000000     0.000000     0.000000     0.000000
    4    -1.000000   180.000000     0.000000     0.707107     0.707107     0.000000     0.000000     0.000000
    5    -1.000000   180.000000     0.000000    -1.000000     0.000000     0.000000     0.000000     0.000000
    6     1.000000    90.000000     1.000000     0.000000    -0.000000     0.000000     0.000000     0.000000
    7     1.000000   180.000000     1.000000     0.000000     0.000000     0.000000     0.000000     0.000000
    8    -1.000000   180.000000     0.000000    -0.707107     0.707107     0.000000     0.000000     0.000000

 Subroutine IBZKPT returns following result:

 Found    163 irreducible k-points:

 Following reciprocal coordinates:
            Coordinates               Weight
  0.000000  0.000000  0.000000      1.000000
  0.083333  0.000000  0.000000      8.000000
  0.166667 -0.000000 -0.000000      8.000000
  0.250000  0.000000  0.000000      8.000000
  0.333333  0.000000 -0.000000      8.000000
  0.416667  0.000000  0.000000      8.000000
  0.500000  0.000000  0.000000      4.000000
  0.083333  0.083333 -0.000000      4.000000
  0.166667  0.083333 -0.000000     16.000000
  0.250000  0.083333 -0.000000     16.000000
  0.333333  0.083333  0.000000     16.000000
  0.416667  0.083333 -0.000000     16.000000
  0.500000  0.083333  0.000000     16.000000
 -0.416667  0.083333 -0.000000     16.000000
 -0.333333  0.083333  0.000000     16.000000
 -0.250000  0.083333  0.000000     16.000000
 -0.166667  0.083333 -0.000000     16.000000
 -0.083333  0.083333 -0.000000      8.000000
  0.166667  0.166667 -0.000000      4.000000
  0.250000  0.166667 -0.000000     16.000000
  0.333333  0.166667  0.000000     16.000000
  0.416667  0.166667  0.000000     16.000000
  0.500000  0.166667 -0.000000     16.000000
 -0.416667  0.166667 -0.000000     16.000000
 -0.333333  0.166667 -0.000000     16.000000
 -0.250000  0.166667 -0.000000     16.000000
 -0.166667  0.166667  0.000000      8.000000
  0.250000  0.250000 -0.000000      4.000000
  0.333333  0.250000 -0.000000     16.000000
  0.416667  0.250000 -0.000000     16.000000
  0.500000  0.250000  0.000000     16.000000
 -0.416667  0.250000  0.000000     16.000000
 -0.333333  0.250000  0.000000     16.000000
 -0.250000  0.250000 -0.000000      8.000000
  0.333333  0.333333 -0.000000      4.000000
  0.416667  0.333333 -0.000000     16.000000
  0.500000  0.333333 -0.000000     16.000000
 -0.416667  0.333333 -0.000000     16.000000
 -0.333333  0.333333  0.000000      8.000000
  0.416667  0.416667 -0.000000      4.000000
  0.500000  0.416667 -0.000000     16.000000
 -0.416667  0.416667 -0.000000      8.000000
  0.500000  0.500000 -0.000000      2.000000
  0.083333 -0.000000  0.083333      2.000000
  0.166667  0.000000  0.083333      8.000000
  0.250000 -0.000000  0.083333      8.000000
  0.333333  0.000000  0.083333      8.000000
  0.416667 -0.000000  0.083333      8.000000
  0.500000  0.000000  0.083333      8.000000
 -0.416667 -0.000000  0.083333      8.000000
 -0.333333  0.000000  0.083333      8.000000
 -0.250000  0.000000  0.083333      8.000000
 -0.166667 -0.000000  0.083333      8.000000
 -0.083333 -0.000000  0.083333      4.000000
  0.250000  0.166667  0.083333      8.000000
  0.333333  0.166667  0.083333     16.000000
  0.416667  0.166667  0.083333     16.000000
  0.500000  0.166667  0.083333     16.000000
 -0.416667  0.166667  0.083333      8.000000
  0.166667  0.250000  0.083333      8.000000
[...]
  0.333333 -0.083333  0.250000      8.000000
  0.333333 -0.000000  0.333333      2.000000
  0.416667 -0.000000  0.333333      8.000000
  0.500000 -0.000000  0.333333      8.000000
 -0.416667 -0.000000  0.333333      8.000000
 -0.333333  0.000000  0.333333      4.000000
  0.416667 -0.250000  0.333333      8.000000
  0.416667 -0.166667  0.333333     16.000000
  0.500000 -0.166667  0.333333      4.000000
  0.416667 -0.083333  0.333333      8.000000
  0.416667 -0.000000  0.416667      2.000000
  0.500000 -0.000000  0.416667      8.000000
 -0.416667  0.000000  0.416667      4.000000
  0.500000 -0.083333  0.416667      4.000000
  0.500000 -0.000000  0.500000      1.000000

 Following cartesian coordinates:
            Coordinates               Weight
  0.000000  0.000000  0.000000      1.000000
 -0.020408 -0.020408  0.020408      8.000000
 -0.040815 -0.040815  0.040815      8.000000
 -0.061223 -0.061223  0.061223      8.000000
 -0.081631 -0.081631  0.081631      8.000000
 -0.102038 -0.102038  0.102038      8.000000
 -0.122446 -0.122446  0.122446      4.000000
  0.000000  0.000000  0.040815      4.000000
 -0.020408 -0.020408  0.061223     16.000000
 -0.040815 -0.040815  0.081631     16.000000
 -0.061223 -0.061223  0.102038     16.000000
 -0.081631 -0.081631  0.122446     16.000000
 -0.102038 -0.102038  0.142854     16.000000
  0.122446  0.122446 -0.081631     16.000000
  0.102038  0.102038 -0.061223     16.000000
  0.081631  0.081631 -0.040815     16.000000
  0.061223  0.061223 -0.020408     16.000000
  0.040815  0.040815  0.000000      8.000000
 -0.000000 -0.000000  0.081631      4.000000
 -0.020408 -0.020408  0.102038     16.000000
 -0.040815 -0.040815  0.122446     16.000000
 -0.061223 -0.061223  0.142854     16.000000
 -0.081631 -0.081631  0.163262     16.000000
  0.142854  0.142854 -0.061223     16.000000
  0.122446  0.122446 -0.040815     16.000000
  0.102038  0.102038 -0.020408     16.000000
  0.081631  0.081631  0.000000      8.000000
  0.000000  0.000000  0.122446      4.000000
 -0.020408 -0.020408  0.142854     16.000000
 -0.040815 -0.040815  0.163262     16.000000
 -0.061223 -0.061223  0.183669     16.000000
  0.163262  0.163262 -0.040815     16.000000
  0.142854  0.142854 -0.020408     16.000000
  0.122446  0.122446  0.000000      8.000000
  0.000000  0.000000  0.163262      4.000000
 -0.020408 -0.020408  0.183669     16.000000
 -0.040815 -0.040815  0.204077     16.000000
  0.183669  0.183669 -0.020408     16.000000
  0.163262  0.163262 -0.000000      8.000000
  0.000000  0.000000  0.204077      4.000000
 -0.020408 -0.020408  0.224485     16.000000
  0.204077  0.204077  0.000000      8.000000
  0.000000  0.000000  0.244892      2.000000
 -0.040815  0.000000  0.000000      2.000000
 -0.061223 -0.020408  0.020408      8.000000
 -0.081631 -0.040815  0.040815      8.000000
 -0.102038 -0.061223  0.061223      8.000000
 -0.122446 -0.081631  0.081631      8.000000
 -0.142854 -0.102038  0.102038      8.000000
  0.081631  0.122446 -0.122446      8.000000
  0.061223  0.102038 -0.102038      8.000000
  0.040815  0.081631 -0.081631      8.000000
  0.020408  0.061223 -0.061223      8.000000
  0.000000  0.040815 -0.040815      4.000000
 -0.040815 -0.000000  0.081631      8.000000
 -0.061223 -0.020408  0.102038     16.000000
 -0.081631 -0.040815  0.122446     16.000000
 -0.102038 -0.061223  0.142854     16.000000
  0.122446  0.163262 -0.081631      8.000000
  0.000000  0.040815  0.081631      8.000000
[...]
 -0.163262 -0.040815  0.000000      8.000000
 -0.163262 -0.000000  0.000000      2.000000
 -0.183669 -0.020408  0.020408      8.000000
 -0.204077 -0.040815  0.040815      8.000000
  0.020408  0.183669 -0.183669      8.000000
  0.000000  0.163262 -0.163262      4.000000
 -0.244892 -0.081631 -0.040815      8.000000
 -0.224485 -0.061223 -0.020408     16.000000
 -0.244892 -0.081631  0.000000      4.000000
 -0.204077 -0.040815  0.000000      8.000000
 -0.204077  0.000000  0.000000      2.000000
 -0.224485 -0.020408  0.020408      8.000000
  0.000000  0.204077 -0.204077      4.000000
 -0.244892 -0.040815 -0.000000      4.000000
 -0.244892  0.000000  0.000000      1.000000

 Subroutine IBZKPT_HF returns following result:

 Found   1728 k-points in 1st BZ
 the following   1728 k-points will be used (e.g. in the exchange kernel)
 Following reciprocal coordinates:   # in IRBZ
  0.000000  0.000000  0.000000    0.00057870   1 t-inv F
  0.083333  0.000000  0.000000    0.00057870   2 t-inv F
  0.166667 -0.000000 -0.000000    0.00057870   3 t-inv F
  0.250000  0.000000  0.000000    0.00057870   4 t-inv F
  0.333333  0.000000 -0.000000    0.00057870   5 t-inv F
  0.416667  0.000000  0.000000    0.00057870   6 t-inv F
  0.500000  0.000000  0.000000    0.00057870   7 t-inv F
  0.083333  0.083333 -0.000000    0.00057870   8 t-inv F
  0.166667  0.083333 -0.000000    0.00057870   9 t-inv F
  0.250000  0.083333 -0.000000    0.00057870  10 t-inv F
  0.333333  0.083333  0.000000    0.00057870  11 t-inv F
  0.416667  0.083333 -0.000000    0.00057870  12 t-inv F
[...]
      9      22.1684      0.00000
     10      22.6607      0.00000
     11      22.6607      0.00000
     12      22.6607      0.00000
     13      25.5678      0.00000
     14      29.6253      0.00000
     15      29.6253      0.00000
     16      42.5243      0.00000

[...]

 soft charge-density along one line, spin component           1
         0         1         2         3         4         5         6         7         8         9
 total charge-density along one line

------------------------ aborting loop because EDIFF is reached ----------------------------------------

  FORCE on cell =-STRESS in cart. coord.  units (eV):
  Direction    XX          YY          ZZ          XY          YZ          ZX
  Alpha Z    19.24757    19.24757    19.24757
  Ewald    -183.19099  -183.19099  -183.19099    -0.00000     0.00000     0.00000
  Hartree    77.05602    77.05602    77.05602    -0.00000     0.00000    -0.00000
  E(xc)     -54.21226   -54.21226   -54.21226    -0.00001     0.00001    -0.00001
  Local     -41.88798   -41.88798   -41.88798     0.00002    -0.00002     0.00002
  n-local   -55.04053   -55.64087   -54.44018     0.95273    -0.11958    -0.37457
  augment    36.25757    36.25757    36.25757    -0.00002     0.00002    -0.00002
  Kinetic   201.64514   203.72445   199.56582    -3.24886     0.42001     1.24167
  Fock        0.00000     0.00000     0.00000     0.00000     0.00000     0.00000
  Total      -0.12546    -0.12546    -0.12546     0.00000     0.00000     0.00000
  in kB     -11.80878   -11.80872   -11.80872     0.00000     0.00000     0.00000

 VOLUME and BASIS-vectors are now :
  energy-cutoff  :      520.00
  volume of cell :       17.02
      direct lattice vectors                 reciprocal lattice vectors
    -2.041713417  0.000000000  2.041713417    -0.244892352 -0.244892352  0.244892352
     0.000000000  2.041713417  2.041713417     0.244892352  0.244892352  0.244892352
    -2.041713417  2.041713417  0.000000000    -0.244892352  0.244892352 -0.244892352

  length of vectors
     2.887418805  2.887418805  2.887418805     0.424165995  0.424165995  0.424165995

 FORCES acting on ions
    electron-ion (+dipol)            ewald-force                    non-local-force                 convergence-correction
   -.122E-04 0.595E-12 0.841E-12   0.117E-04 -.806E-14 -.597E-14   0.978E-06 -.303E-23 0.826E-23   0.203E-07 -.128E-11 -.128E-11
   0.962E-05 0.717E-11 0.669E-11   -.117E-04 0.815E-14 0.547E-14   0.170E-05 -.309E-23 0.860E-23   0.126E-06 0.272E-11 0.273E-11
   -.257E-05 0.777E-11 0.753E-11   0.626E-16 0.838E-16 -.506E-15   0.268E-05 -.613E-23 0.169E-22   0.146E-06 0.144E-11 0.145E-11

 POSITION                                       TOTAL-FORCE (eV/Angst)
      0.00000      0.00000      0.00000         0.000000      0.000000      0.000000
     -2.04171      2.04171      2.04171        -0.000000     -0.000000     -0.000000
    total drift:                                0.000000      0.000000      0.000000

  FREE ENERGIE OF THE ION-ELECTRON SYSTEM (eV)
  free  energy   TOTEN  =        -9.64052461 eV

  energy  without entropy=       -9.64052461  energy(sigma->0) =       -9.64052461

 Found     4 degrees of freedom:

     directions for atom     1:  y
     directions for atom     2:  y
 Linear response reoptimize wavefunctions
 Linear response to external field (no local field effect), progress :
  Direction:   1
  LATTYP: Found a face centered cubic cell.
 ALAT       =     4.0834268340

[...]

----------------------------------------- Iteration    1(   1)  ---------------------------------------

 Free energy of the ion-electron system (eV)
  -Hartree energ DENC   =         0.00000000
  -V(xc)+E(xc)   XCENC  =         0.00000000
  PAW double counting   =         0.00000000        0.00000000
  entropy T*S    EENTRO =         0.00000000
  eigenvalues    EBANDS =        -0.04755223
  free energy    TOTEN  =        -0.04755223 eV

  energy without entropy =       -0.04755223

[...]

 change of polarisation eV/A/(eV/A) component  1 :     0.100    -0.026     0.011
 dielectric tensor                  component  1 :     2.065    -0.279     0.112

 Linear response to external field (no local field effect), progress :
  Direction:   2
  LATTYP: Found a face centered cubic cell.
 ALAT       =     4.0834268340

[...]

The dynamic configuration has the point symmetry C_1h.

[...]

 Linear response to external field (no local field effect), progress :
  Direction:   3
  LATTYP: Found a face centered cubic cell.
 ALAT       =     4.0834268340

[...]

 HEAD OF MICROSCOPIC STATIC DIELECTRIC TENSOR (INDEPENDENT PARTICLE, excluding Hartree and local field effects)
           2.065227    -0.000000     0.000000
          -0.000000     2.065240    -0.000000
           0.000000    -0.000000     2.065240

 Linear response to external field, progress :
  Direction:   1
  LATTYP: Found a face centered cubic cell.
 ALAT       =     4.0834268340

[...]

 PIEZOELECTRIC TENSOR FIELD DIRECTION 1  (e Angst)
     0.00001  0.00000 -0.00000           (  0.00000 -0.00000  0.00000)
     0.00000  0.00003  0.00000           ( -0.00000  0.00000 -0.00000)
    -0.00000 -0.00000  0.00003           (  0.00000 -0.00000  0.00000)

 PIEZOELECTRIC TENSOR FIELD DIRECTION 1  (C/m^2)
     0.00001  0.00000 -0.00000
     0.00000  0.00003  0.00000
    -0.00000 -0.00000  0.00003

      POSITION         DIRECTION 1           BORN EFFECTIVE CHARGE    (rigid.aug.   ionic)
      0.00000      0.00000      0.00000     1.05408 -0.00000 -0.00000 ( -0.97636  3.00000)
     -2.04171      2.04171      2.04171    -1.05406 -0.00000  0.00000 ( -1.29233  7.00000)
    total drift (improves with k-points):   0.00002 -0.00000 -0.00000

[...]

 Linear response to external field, progress :
  Direction:   3
  LATTYP: Found a face centered cubic cell.
 ALAT       =     4.0834268340

[...]

 change of polarisation eV/A/(eV/A) component  3 :    -0.000     0.001     0.098
 dielectric tensor                  component  3 :    -0.000     0.006     2.043

 PIEZOELECTRIC TENSOR FIELD DIRECTION 3  (e Angst)
    -0.00001  0.00000 -0.00001           ( -0.00000  0.00000 -0.00000)
     0.00000 -0.00001  0.00000           (  0.00000 -0.00000  0.00000)
    -0.00001  0.00000 -0.00000           ( -0.00000  0.00000 -0.00000)

 PIEZOELECTRIC TENSOR FIELD DIRECTION 3  (C/m^2)
    -0.00001  0.00000 -0.00001
     0.00000 -0.00001  0.00000
    -0.00001  0.00000 -0.00000

      POSITION         DIRECTION 3           BORN EFFECTIVE CHARGE    (rigid.aug.   ionic)
      0.00000      0.00000      0.00000     0.00000  0.00000  1.05407 ( -0.97636  3.00000)
     -2.04171      2.04171      2.04171    -0.00000  0.00000 -1.05408 ( -1.29233  7.00000)
    total drift (improves with k-points):   0.00000  0.00000 -0.00000

[...]

 MACROSCOPIC STATIC DIELECTRIC TENSOR (including local field effects in DFT)
           2.042832    -0.000000     0.000000
          -0.000000     2.042844    -0.000000
           0.000000    -0.000000     2.042844

 Linear response:
   Degrees of freedom DOF   =            4
 Linear response progress:
  Degree of freedom:   1/  4
  LATTYP: Found a face centered cubic cell.
 ALAT       =     4.0834268340

[...]

 INTERNAL STRAIN TENSOR  FOR ION    1  DIRECTION 1   (eV/Angst):
    -0.00019  0.00000  0.00000
    -0.00000 -0.00024 -0.00000
     0.00000  0.00000 -0.00024

 POSITION                   FORCE-CONSTANT FOR ION    1 DIRECTION 1 (eV/Angst/Angst)
      0.00000      0.00000      0.00000        -1.310313      0.000000      0.000000
     -2.04171      2.04171      2.04171         1.310313     -0.000000     -0.000000
    total drift:                                0.000000      0.000000      0.000000

 BORN EFFECTIVE CHARGE FOR ION    1 DIRECTION 1 :   1.054  -0.000   0.000
                   rigid augmentation           :  -0.976  -0.000   0.000
                   ionic contribution           :   3.000  -0.000   0.000
                   Berry contribution           :  -0.970   0.000  -0.000

 Linear response progress:
  Degree of freedom:   2/  4
  LATTYP: Found a face centered cubic cell.
 ALAT       =     4.0834268340

[...]

 Linear response progress:
  Degree of freedom:   4/  4
  LATTYP: Found a face centered cubic cell.
 ALAT       =     4.0834268340

[...]

The dynamic configuration has the point symmetry C_1h.

[...]

----------------------------------------- Iteration    8(  12)  ---------------------------------------

 Broyden mixing:
  rms(total) = 0.94316E-06    rms(broyden)= 0.94173E-06
  rms(prec ) = 0.26076E-05
  weight for this iteration     100.00

 eigenvalues of (default mixing * dielectric matrix)
  average eigenvalue GAMMA=   1.9814
  3.5491  2.0214  2.8101  2.7280  2.5374  2.3039  1.0066  1.0066  0.9692  0.8814

 Free energy of the ion-electron system (eV)
  -Hartree energ DENC   =        -0.17001366
  -V(xc)+E(xc)   XCENC  =         0.00019771
  PAW double counting   =         0.00000132       -0.00000148
  entropy T*S    EENTRO =        -0.00000000
  eigenvalues    EBANDS =        -0.35327048
  free energy    TOTEN  =        -0.52308658 eV

  energy without entropy =       -0.52308658

[...]

 k-point 476 :      -0.0000   -0.5000   -0.5000
  band No.  band energies     occupation
      1      -0.0001      0.00000
      2       0.0004      0.00000
      3       0.0003      0.00000
      4       0.0003      0.00000
      5       0.0003      0.00000
      6       0.0003      0.00000
      7       0.0000      0.00000
      8       0.0000      0.00000
      9       0.0001      0.00000
     10       0.0001      0.00000
     11       0.0001      0.00000
     12       0.0001      0.00000
     13      -0.0000      0.00000
     14       0.0001      0.00000
     15       0.0001      0.00000
     16       0.0002      0.00000

------------------------ aborting loop because EDIFF is reached ----------------------------------------

 INTERNAL STRAIN TENSOR  FOR ION    2  DIRECTION 2   (eV/Angst):
     0.00185 -0.00041  0.00000
    -0.00041  0.00007  0.00000
     0.00000  0.00000  0.00050

 POSITION                   FORCE-CONSTANT FOR ION    2 DIRECTION 2 (eV/Angst/Angst)
      0.00000      0.00000      0.00000         0.000052      1.249636     -0.000000
     -2.04171      2.04171      2.04171        -0.000052     -1.249636      0.000000
    total drift:                               -0.000000      0.000000      0.000000

 BORN EFFECTIVE CHARGE FOR ION    2 DIRECTION 2 :  -0.000  -1.054   0.000
                   rigid augmentation           :  -0.000  -1.292  -0.000
                   ionic contribution           :  -0.000   7.000  -0.000
                   Berry contribution           :  -0.000  -6.762   0.000

  LATTYP: Found a face centered cubic cell.
 ALAT       =     4.0834268340

  Lattice vectors:

 A1 = (  -2.0417134170,   0.0000000000,   2.0417134170)
 A2 = (   0.0000000000,   2.0417134170,   2.0417134170)
 A3 = (  -2.0417134170,   2.0417134170,   0.0000000000)

Analysis of symmetry for initial positions (statically):
 Subroutine PRICEL returns:
 Original cell was already a primitive cell.

[...]

The static configuration has the point symmetry C_4v.

Analysis of symmetry for dynamics (positions and initial velocities):
 Subroutine PRICEL returns:
 Original cell was already a primitive cell.

 Routine SETGRP: Setting up the symmetry group for a
 face centered cubic supercell.

 Subroutine GETGRP returns: Found  8 space group operations
 (whereof  8 operations were pure point group operations)
 out of a pool of 48 trial point group operations.

The dynamic configuration has the point symmetry C_4v.

 Subroutine INISYM returns: Found  8 space group operations
 (whereof  8 operations are pure point group operations),
 and found     1 'primitive' translations

 MACROSCOPIC STATIC DIELECTRIC TENSOR (including local field effects in DFT)
           2.042832    -0.000000     0.000000
          -0.000000     2.042844    -0.000000
           0.000000    -0.000000     2.042844

 PIEZOELECTRIC TENSOR  for field in x, y, z        (e  Angst)
          XX          YY          ZZ          XY          YZ          ZX
  x     0.00001     0.00003     0.00003     0.00000    -0.00000    -0.00000
  y    -0.00005    -0.00001    -0.00002     0.00002    -0.00000     0.00000
  z    -0.00001    -0.00001    -0.00000     0.00000     0.00000    -0.00001

 PIEZOELECTRIC TENSOR  for field in x, y, z        (C/m^2)
          XX          YY          ZZ          XY          YZ          ZX
  x     0.00001     0.00003     0.00003    -0.00000    -0.00000     0.00000
  y     0.00000    -0.00000    -0.00000     0.00000     0.00000    -0.00000
  z     0.00000     0.00000     0.00000    -0.00000    -0.00000     0.00000

 BORN EFFECTIVE CHARGES (in e, cummulative output)
 ion    1
    1     1.05407    -0.00000    -0.00000
    2     0.00000     1.05407    -0.00000
    3     0.00000    -0.00000     1.05407
 ion    2
    1    -1.05407     0.00000     0.00000
    2    -0.00000    -1.05407     0.00000
    3    -0.00000     0.00000    -1.05407

 INTERNAL STRAIN TENSOR FOR ION    1 for displacements in x,y,z  (eV/Angst):
          X           Y           Z          XY          YZ          ZX
  x    -0.00019    -0.00024    -0.00024     0.00000     0.00000    -0.00000
  y     0.00000     0.00000     0.00000    -0.00051    -0.00000     0.00000
  z     0.00000     0.00000     0.00000     0.00000     0.00000    -0.00051

 INTERNAL STRAIN TENSOR FOR ION    2 for displacements in x,y,z  (eV/Angst):
          X           Y           Z          XY          YZ          ZX
  x    -0.00025    -0.00092    -0.00092     0.00000     0.00000    -0.00000
  y     0.00000     0.00000     0.00000    -0.00041    -0.00000     0.00000
  z    -0.00000     0.00000    -0.00000     0.00000     0.00000    -0.00041

 SECOND DERIVATIVES (NOT SYMMETRIZED)
               1X          1Y          1Z          2X          2Y          2Z
  1X    -1.310313    0.000000   -0.000000    1.310313   -0.000000    0.000000
  1Y     0.000000   -1.310780    0.000000   -0.000000    1.310780   -0.000000
  1Z    -0.000000    0.000000   -1.310780    0.000000   -0.000000    1.310780
  2X     1.249643   -0.000000    0.000000   -1.249643    0.000000   -0.000000
  2Y    -0.000000    1.249636   -0.000000    0.000000   -1.249636    0.000000
  2Z     0.000000   -0.000000    1.249636   -0.000000    0.000000   -1.249636

 Eigenvectors and eigenvalues of the dynamical matrix

   1 f  =    7.860181 THz    49.386976 2PiTHz  262.187422 cm-1    32.507109 meV
             X         Y         Z           dx          dy          dz
      0.000000  0.000000  0.000000    -0.000000    0.860067    0.000000
     -2.041713  2.041713  2.041713     0.000000   -0.510180   -0.000000

[...]

   3 f  =    7.859144 THz    49.380459 2PiTHz  262.152825 cm-1    32.502820 meV
             X         Y         Z           dx          dy          dz
      0.000000  0.000000  0.000000     0.860027    0.000000   -0.000000
     -2.041713  2.041713  2.041713    -0.510248   -0.000000    0.000000

   4 f/i=    0.081745 THz     0.513620 2PiTHz    2.726727 cm-1     0.338071 meV
             X         Y         Z           dx          dy          dz
      0.000000  0.000000  0.000000     0.510248   -0.000000   -0.000000
     -2.041713  2.041713  2.041713     0.860027   -0.000000   -0.000000

[...]

   6 f/i=    0.082373 THz     0.517564 2PiTHz    2.747661 cm-1     0.340667 meV
             X         Y         Z           dx          dy          dz
      0.000000  0.000000  0.000000    -0.000000   -0.341749    0.378803
     -2.041713  2.041713  2.041713    -0.000000   -0.576124    0.638590

 MACROSCOPIC STATIC DIELECTRIC TENSOR IONIC CONTRIBUTION
           9.224963     0.000010     0.000014
           0.000010     9.223314     0.000000
           0.000014     0.000000     9.223374

 ELASTIC MODULI IONIC CONTR (kBar)
 Direction    XX          YY          ZZ          XY          YZ          ZX
 XX          -0.0000     -0.0000     -0.0000      0.0000      0.0000      0.0000
 YY          -0.0000     -0.0000     -0.0000      0.0000      0.0000      0.0000
 ZZ          -0.0000     -0.0000     -0.0000      0.0000      0.0000      0.0000
 XY           0.0000      0.0000      0.0000     -0.0000     -0.0000     -0.0000
 YZ           0.0000      0.0000      0.0000     -0.0000     -0.0000      0.0000
 ZX           0.0000      0.0000      0.0000     -0.0000      0.0000     -0.0000

 PIEZOELECTRIC TENSOR IONIC CONTR  for field in x, y, z        (C/m^2)
          XX          YY          ZZ          XY          YZ          ZX
  x     0.00002     0.00026     0.00026    -0.00000    -0.00000    -0.00000
  y     0.00000     0.00000     0.00000    -0.00004    -0.00000    -0.00000
  z     0.00000     0.00000     0.00000     0.00000     0.00000    -0.00005