 vasp.5.4.4.18Apr17-6-g9f103f2a35 (build Aug 24 2017 11:22:49) complex

 executed on             LinuxIFC date 2023.12.25  13:07:34

 INCAR:
 POTCAR:    PAW_PBE Si 05Jan2001
 POTCAR:    PAW_PBE C 08Apr2002

 POTCAR:    PAW_PBE Si 05Jan2001
   VRHFIN =Si: s2p2

   TITEL  = PAW_PBE Si 05Jan2001
   POMASS =   28.085; ZVAL   =    4.000    mass and valenz
   ENMAX  =  245.345; ENMIN  =  184.009 eV

 POTCAR:    PAW_PBE C 08Apr2002
   VRHFIN =C: s2p2

   TITEL  = PAW_PBE C 08Apr2002
   POMASS =   12.011; ZVAL   =    4.000    mass and valenz
   ENMAX  =  400.000; ENMIN  =  300.000 eV

  PAW_PBE Si 05Jan2001                  :
  PAW_PBE C 08Apr2002                   :

 POSCAR: Si1 C1
  positions in direct lattice
 exchange correlation table for  LEXCH =        8
   RHO(1)=    0.500       N(1)  =     2000
   RHO(2)=  100.500       N(2)  =     4000

 ion  position               nearest neighbor table
   1  0.250  0.250  0.250-   2 1.89   2 1.89   2 1.89   2 1.89
   2  0.000  0.000  0.000-   1 1.89   1 1.89   1 1.89   1 1.89

  LATTYP: Found a face centered cubic cell.
 ALAT       =     4.3539929131

  Lattice vectors:

 A1 = (  -2.1769964566,   0.0000000000,   2.1769964566)
 A2 = (   0.0000000000,   2.1769964566,   2.1769964566)
 A3 = (  -2.1769964566,   2.1769964566,   0.0000000000)

Analysis of symmetry for initial positions (statically):
 Subroutine PRICEL returns:
 Original cell was already a primitive cell.

 Routine SETGRP: Setting up the symmetry group for a
 face centered cubic supercell.

 Subroutine GETGRP returns: Found  2 space group operations
 (whereof  2 operations were pure point group operations)
 out of a pool of 48 trial point group operations.

The static configuration has the point symmetry C_1h.

Analysis of symmetry for dynamics (positions and initial velocities):
 Subroutine PRICEL returns:
 Original cell was already a primitive cell.

[...]

The dynamic configuration has the point symmetry C_1h.

 Subroutine INISYM returns: Found  2 space group operations
 (whereof  2 operations are pure point group operations),
 and found     1 'primitive' translations

 KPOINTS: pymatgen with grid density = 3000 / numb

Automatic generation of k-mesh.
Space group operators:
 irot       det(A)        alpha          n_x          n_y          n_z        tau_x        tau_y        tau_z
    1     1.000000     0.000000     1.000000     0.000000     0.000000     0.000000     0.000000     0.000000
    2    -1.000000   180.000000     0.707107    -0.707107    -0.000000     0.000000     0.000000     0.000000

 Subroutine IBZKPT returns following result:

 Found    476 irreducible k-points:

 Following reciprocal coordinates:
            Coordinates               Weight
  0.000000  0.000000  0.000000      1.000000
  0.083333 -0.000000 -0.000000      2.000000
  0.166667  0.000000  0.000000      2.000000
  0.250000 -0.000000 -0.000000      2.000000
  0.333333  0.000000  0.000000      2.000000
  0.416667  0.000000 -0.000000      2.000000
  0.500000 -0.000000 -0.000000      1.000000
 -0.000000  0.083333  0.000000      2.000000
  0.083333  0.083333 -0.000000      2.000000
  0.166667  0.083333  0.000000      2.000000
  0.250000  0.083333  0.000000      2.000000
  0.333333  0.083333 -0.000000      2.000000
  0.416667  0.083333  0.000000      2.000000
  0.500000  0.083333 -0.000000      2.000000
 -0.416667  0.083333  0.000000      2.000000
 -0.333333  0.083333 -0.000000      2.000000
 -0.250000  0.083333 -0.000000      2.000000
 -0.166667  0.083333 -0.000000      2.000000
 -0.083333  0.083333  0.000000      2.000000
 -0.000000  0.166667 -0.000000      2.000000
  0.083333  0.166667 -0.000000      2.000000
  0.166667  0.166667 -0.000000      2.000000
  0.250000  0.166667 -0.000000      2.000000
  0.333333  0.166667 -0.000000      2.000000
  0.416667  0.166667 -0.000000      2.000000
  0.500000  0.166667  0.000000      2.000000
 -0.416667  0.166667 -0.000000      2.000000
 -0.333333  0.166667  0.000000      2.000000
 -0.250000  0.166667  0.000000      2.000000
 -0.166667  0.166667 -0.000000      2.000000
 -0.083333  0.166667  0.000000      2.000000
 -0.000000  0.250000 -0.000000      2.000000
  0.083333  0.250000 -0.000000      2.000000
  0.166667  0.250000  0.000000      2.000000
  0.250000  0.250000 -0.000000      2.000000
  0.333333  0.250000 -0.000000      2.000000
  0.416667  0.250000  0.000000      2.000000
  0.500000  0.250000 -0.000000      2.000000
 -0.416667  0.250000  0.000000      2.000000
 -0.333333  0.250000  0.000000      2.000000
 -0.250000  0.250000  0.000000      2.000000
 -0.166667  0.250000  0.000000      2.000000
 -0.083333  0.250000 -0.000000      2.000000
  0.000000  0.333333 -0.000000      2.000000
  0.083333  0.333333 -0.000000      2.000000
  0.166667  0.333333 -0.000000      2.000000
  0.250000  0.333333 -0.000000      2.000000
  0.333333  0.333333 -0.000000      2.000000
  0.416667  0.333333 -0.000000      2.000000
  0.500000  0.333333  0.000000      2.000000
 -0.416667  0.333333  0.000000      2.000000
 -0.333333  0.333333 -0.000000      2.000000
 -0.250000  0.333333  0.000000      2.000000
 -0.166667  0.333333 -0.000000      2.000000
 -0.083333  0.333333 -0.000000      2.000000
 -0.000000  0.416667  0.000000      2.000000
  0.083333  0.416667 -0.000000      2.000000
  0.166667  0.416667  0.000000      2.000000
  0.250000  0.416667 -0.000000      2.000000
  0.333333  0.416667 -0.000000      2.000000
[...]
  0.333333  0.166667  0.500000      4.000000
  0.416667  0.166667  0.500000      4.000000
  0.500000  0.166667  0.500000      4.000000
 -0.416667  0.166667  0.500000      4.000000
 -0.333333  0.166667  0.500000      4.000000
 -0.250000  0.166667  0.500000      4.000000
 -0.166667  0.166667  0.500000      4.000000
 -0.083333  0.166667  0.500000      4.000000
 -0.000000  0.250000  0.500000      4.000000
  0.083333  0.250000  0.500000      4.000000
  0.166667  0.250000  0.500000      4.000000
  0.250000  0.250000  0.500000      2.000000
 -0.416667  0.250000  0.500000      4.000000
 -0.333333  0.250000  0.500000      4.000000
 -0.250000  0.250000  0.500000      2.000000

 Following cartesian coordinates:
            Coordinates               Weight
  0.000000  0.000000  0.000000      1.000000
 -0.019140 -0.019140  0.019140      2.000000
 -0.038279 -0.038279  0.038279      2.000000
 -0.057419 -0.057419  0.057419      2.000000
 -0.076558 -0.076558  0.076558      2.000000
 -0.095698 -0.095698  0.095698      2.000000
 -0.114837 -0.114837  0.114837      1.000000
  0.019140  0.019140  0.019140      2.000000
  0.000000  0.000000  0.038279      2.000000
 -0.019140 -0.019140  0.057419      2.000000
 -0.038279 -0.038279  0.076558      2.000000
 -0.057419 -0.057419  0.095698      2.000000
 -0.076558 -0.076558  0.114837      2.000000
 -0.095698 -0.095698  0.133977      2.000000
  0.114837  0.114837 -0.076558      2.000000
  0.095698  0.095698 -0.057419      2.000000
  0.076558  0.076558 -0.038279      2.000000
  0.057419  0.057419 -0.019140      2.000000
  0.038279  0.038279  0.000000      2.000000
  0.038279  0.038279  0.038279      2.000000
  0.019140  0.019140  0.057419      2.000000
  0.000000  0.000000  0.076558      2.000000
 -0.019140 -0.019140  0.095698      2.000000
 -0.038279 -0.038279  0.114837      2.000000
 -0.057419 -0.057419  0.133977      2.000000
 -0.076558 -0.076558  0.153116      2.000000
  0.133977  0.133977 -0.057419      2.000000
  0.114837  0.114837 -0.038279      2.000000
  0.095698  0.095698 -0.019140      2.000000
  0.076558  0.076558  0.000000      2.000000
  0.057419  0.057419  0.019140      2.000000
  0.057419  0.057419  0.057419      2.000000
  0.038279  0.038279  0.076558      2.000000
  0.019140  0.019140  0.095698      2.000000
  0.000000  0.000000  0.114837      2.000000
 -0.019140 -0.019140  0.133977      2.000000
 -0.038279 -0.038279  0.153116      2.000000
 -0.057419 -0.057419  0.172256      2.000000
  0.153116  0.153116 -0.038279      2.000000
  0.133977  0.133977 -0.019140      2.000000
  0.114837  0.114837 -0.000000      2.000000
  0.095698  0.095698  0.019140      2.000000
  0.076558  0.076558  0.038279      2.000000
  0.076558  0.076558  0.076558      2.000000
  0.057419  0.057419  0.095698      2.000000
  0.038279  0.038279  0.114837      2.000000
  0.019140  0.019140  0.133977      2.000000
  0.000000  0.000000  0.153116      2.000000
 -0.019140 -0.019140  0.172256      2.000000
 -0.038279 -0.038279  0.191395      2.000000
  0.172256  0.172256 -0.019140      2.000000
  0.153116  0.153116  0.000000      2.000000
  0.133977  0.133977  0.019140      2.000000
  0.114837  0.114837  0.038279      2.000000
  0.095698  0.095698  0.057419      2.000000
  0.095698  0.095698  0.095698      2.000000
  0.076558  0.076558  0.114837      2.000000
  0.057419  0.057419  0.133977      2.000000
  0.038279  0.038279  0.153116      2.000000
  0.019140  0.019140  0.172256      2.000000
[...]
 -0.153116  0.076558  0.000000      4.000000
 -0.172256  0.057419  0.019140      4.000000
 -0.191395  0.038279  0.038279      4.000000
  0.019140  0.248814 -0.172256      4.000000
  0.000000  0.229674 -0.153116      4.000000
 -0.019140  0.210535 -0.133977      4.000000
 -0.038279  0.191395 -0.114837      4.000000
 -0.057419  0.172256 -0.095698      4.000000
 -0.057419  0.172256 -0.057419      4.000000
 -0.076558  0.153116 -0.038279      4.000000
 -0.095698  0.133977 -0.019140      4.000000
 -0.114837  0.114837  0.000000      2.000000
  0.038279  0.267953 -0.153116      4.000000
  0.019140  0.248814 -0.133977      4.000000
 -0.000000  0.229674 -0.114837      2.000000

 Subroutine IBZKPT_HF returns following result:

 Found   1728 k-points in 1st BZ
 the following   1728 k-points will be used (e.g. in the exchange kernel)
 Following reciprocal coordinates:   # in IRBZ
  0.000000  0.000000  0.000000    0.00057870   1 t-inv F
  0.083333 -0.000000 -0.000000    0.00057870   2 t-inv F
  0.166667  0.000000  0.000000    0.00057870   3 t-inv F
  0.250000 -0.000000 -0.000000    0.00057870   4 t-inv F
  0.333333  0.000000  0.000000    0.00057870   5 t-inv F
  0.416667  0.000000 -0.000000    0.00057870   6 t-inv F
  0.500000 -0.000000 -0.000000    0.00057870   7 t-inv F
 -0.000000  0.083333  0.000000    0.00057870   8 t-inv F
  0.083333  0.083333 -0.000000    0.00057870   9 t-inv F
  0.166667  0.083333  0.000000    0.00057870  10 t-inv F
  0.250000  0.083333  0.000000    0.00057870  11 t-inv F
  0.333333  0.083333 -0.000000    0.00057870  12 t-inv F
  0.416667  0.083333  0.000000    0.00057870  13 t-inv F
  0.500000  0.083333 -0.000000    0.00057870  14 t-inv F
 -0.416667  0.083333  0.000000    0.00057870  15 t-inv F
 -0.333333  0.083333 -0.000000    0.00057870  16 t-inv F
 -0.250000  0.083333 -0.000000    0.00057870  17 t-inv F
 -0.166667  0.083333 -0.000000    0.00057870  18 t-inv F
 -0.083333  0.083333  0.000000    0.00057870  19 t-inv F
 -0.000000  0.166667 -0.000000    0.00057870  20 t-inv F
  0.083333  0.166667 -0.000000    0.00057870  21 t-inv F
  0.166667  0.166667 -0.000000    0.00057870  22 t-inv F
  0.250000  0.166667 -0.000000    0.00057870  23 t-inv F
  0.333333  0.166667 -0.000000    0.00057870  24 t-inv F
  0.416667  0.166667 -0.000000    0.00057870  25 t-inv F
[...]
  the test charge radii are     0.9892  0.6991
  (the norm of the test charge is              1.0000)
       1 -80.3349       2 -44.7436

 E-fermi :   8.1825     XC(G=0): -11.3683     alpha+bet :-16.4802

 k-point     1 :       0.0000    0.0000    0.0000
  band No.  band energies     occupation
      1      -7.2871      2.00000
      2       8.1378      2.00000
      3       8.1378      2.00000
      4       8.1378      2.00000
      5      14.4042      0.00000
      6      15.4645      0.00000
      7      15.4645      0.00000
      8      15.4645      0.00000

[...]

 soft charge-density along one line, spin component           1
         0         1         2         3         4         5         6         7         8         9
 total charge-density along one line

------------------------ aborting loop because EDIFF is reached ----------------------------------------

  FORCE on cell =-STRESS in cart. coord.  units (eV):
  Direction    XX          YY          ZZ          XY          YZ          ZX
  Alpha Z    11.22464    11.22464    11.22464
  Ewald     -95.01627   -95.01627   -95.01627     0.00003     0.00001     0.00001
  Hartree    10.61970    10.61970    10.61970     0.00000     0.00000     0.00000
  E(xc)     -28.50152   -28.50152   -28.50152    -0.00000     0.00000    -0.00000
  Local     -20.28229   -20.28229   -20.28229    -0.00004    -0.00001    -0.00001
  n-local    33.85012    33.73531    33.79272     0.00000    -0.01580     0.01580
  augment    -5.74677    -5.74677    -5.74677     0.00000    -0.00000     0.00000
  Kinetic    93.38849    95.41848    94.40348    -0.00000     0.61124    -0.61124
  Fock        0.00000     0.00000     0.00000     0.00000     0.00000     0.00000
  Total       0.49370     0.49370     0.49370     0.00000     0.00000     0.00000
  in kB      38.33252    38.33252    38.33252     0.00019     0.00006     0.00006

 VOLUME and BASIS-vectors are now :
  energy-cutoff  :      520.00
  volume of cell :       20.63
      direct lattice vectors                 reciprocal lattice vectors
    -2.176996457  0.000000000  2.176996457    -0.229674237 -0.229674237  0.229674237
     0.000000000  2.176996457  2.176996457     0.229674237  0.229674237  0.229674237
    -2.176996457  2.176996457  0.000000000    -0.229674237  0.229674237 -0.229674237

  length of vectors
     3.078737914  3.078737914  3.078737914     0.397807448  0.397807448  0.397807448

 FORCES acting on ions
    electron-ion (+dipol)            ewald-force                    non-local-force                 convergence-correction
   0.485E-05 0.468E-05 0.137E-04   -.391E-05 -.391E-05 -.117E-04   -.248E-05 -.248E-05 -.708E-05   0.521E-08 0.530E-08 0.229E-07
   -.299E-05 -.310E-05 -.943E-05   0.391E-05 0.391E-05 0.117E-04   0.899E-06 0.899E-06 0.253E-05   -.937E-07 -.939E-07 -.727E-07
   0.185E-05 0.158E-05 0.429E-05   0.253E-15 0.272E-15 0.970E-16   -.158E-05 -.158E-05 -.455E-05   -.885E-07 -.886E-07 -.498E-07

 POSITION                                       TOTAL-FORCE (eV/Angst)
     -1.08850      1.08850      1.08850        -0.000002     -0.000002     -0.000005
      0.00000      0.00000      0.00000         0.000002      0.000002      0.000005
    total drift:                                0.000000     -0.000000     -0.000000

  FREE ENERGIE OF THE ION-ELECTRON SYSTEM (eV)
  free  energy   TOTEN  =       -15.05657533 eV

  energy  without entropy=      -15.05657533  energy(sigma->0) =      -15.05657533

 Found     4 degrees of freedom:

     directions for atom     1:  z
     directions for atom     2:  z
 Linear response reoptimize wavefunctions
 Linear response to external field (no local field effect), progress :
  Direction:   1
  LATTYP: Found a face centered cubic cell.
 ALAT       =     4.3539929131

[...]

The dynamic configuration has the point symmetry C_1 .

[...]

----------------------------------------- Iteration    1(   1)  ---------------------------------------

 Free energy of the ion-electron system (eV)
  -Hartree energ DENC   =         0.00000000
  -V(xc)+E(xc)   XCENC  =         0.00000000
  PAW double counting   =         0.00000000        0.00000000
  entropy T*S    EENTRO =         0.00000000
  eigenvalues    EBANDS =        -0.31855000
  free energy    TOTEN  =        -0.31855000 eV

  energy without entropy =       -0.31855000

[...]

 change of polarisation eV/A/(eV/A) component  1 :     0.652    -0.000    -0.065
 dielectric tensor                  component  1 :     6.714    -0.002    -0.569

 Linear response to external field (no local field effect), progress :
  Direction:   2
  LATTYP: Found a face centered cubic cell.
 ALAT       =     4.3539929131

[...]

 Linear response to external field (no local field effect), progress :
  Direction:   3
  LATTYP: Found a face centered cubic cell.
 ALAT       =     4.3539929131

[...]

 HEAD OF MICROSCOPIC STATIC DIELECTRIC TENSOR (INDEPENDENT PARTICLE, excluding Hartree and local field effects)
           7.185189    -0.001902     0.000036
          -0.001902     7.185189     0.000036
          -0.000036    -0.000036     7.183369

 Linear response to external field, progress :
  Direction:   1
  LATTYP: Found a face centered cubic cell.
 ALAT       =     4.3539929131

[...]

 PIEZOELECTRIC TENSOR FIELD DIRECTION 1  (e Angst)
    -0.00021  0.00021  0.00013           (  0.00000  0.00000 -0.00000)
     0.00021 -0.00023 -1.28300           (  0.00000  0.00000 -0.05193)
     0.00013 -1.28300  0.00041           ( -0.00000 -0.05193  0.00000)

 PIEZOELECTRIC TENSOR FIELD DIRECTION 1  (C/m^2)
    -0.00016  0.00016  0.00010
     0.00016 -0.00018 -0.99617
     0.00010 -0.99617  0.00032

      POSITION         DIRECTION 1           BORN EFFECTIVE CHARGE    (rigid.aug.   ionic)
     -1.08850      1.08850      1.08850     2.70232  0.00010 -0.00006 (  0.21302  4.00000)
      0.00000      0.00000      0.00000    -2.70262  0.00020 -0.00005 ( -0.09167  4.00000)
    total drift (improves with k-points):  -0.00030  0.00030 -0.00011

[...]

 Linear response to external field, progress :
  Direction:   3
  LATTYP: Found a face centered cubic cell.
 ALAT       =     4.3539929131

[...]

 change of polarisation eV/A/(eV/A) component  3 :    -0.064     0.064     0.678
 dielectric tensor                  component  3 :    -0.559     0.559     6.942

 PIEZOELECTRIC TENSOR FIELD DIRECTION 3  (e Angst)
    -0.00007 -1.28655 -0.00005           ( -0.00000 -0.05536 -0.00000)
    -1.28655 -0.00007 -0.00005           ( -0.05536 -0.00000 -0.00000)
    -0.00006 -0.00006  0.00004           ( -0.00000 -0.00000 -0.00000)

 PIEZOELECTRIC TENSOR FIELD DIRECTION 3  (C/m^2)
    -0.00006 -0.99893 -0.00004
    -0.99893 -0.00006 -0.00004
    -0.00004 -0.00004  0.00003

      POSITION         DIRECTION 3           BORN EFFECTIVE CHARGE    (rigid.aug.   ionic)
     -1.08850      1.08850      1.08850    -0.00001 -0.00001  2.70247 (  0.21302  4.00000)
      0.00000      0.00000      0.00000    -0.00001 -0.00001 -2.70247 ( -0.09167  4.00000)
    total drift (improves with k-points):  -0.00001 -0.00001  0.00000

[...]

 MACROSCOPIC STATIC DIELECTRIC TENSOR (including local field effects in DFT)
           6.943937    -0.001890     0.000032
          -0.001890     6.943937     0.000032
          -0.000002    -0.000002     6.942129

 Linear response:
   Degrees of freedom DOF   =            4
 Linear response progress:
  Degree of freedom:   1/  4
  LATTYP: Found a face centered cubic cell.
 ALAT       =     4.3539929131

[...]

 INTERNAL STRAIN TENSOR  FOR ION    1  DIRECTION 1   (eV/Angst):
    -0.00854  0.05035 -0.32588
    -0.04684  0.01185  7.75266
     0.35787  7.95316 -0.00378

 POSITION                   FORCE-CONSTANT FOR ION    1 DIRECTION 1 (eV/Angst/Angst)
     -1.08850      1.08850      1.08850       -19.318149      0.000002     -0.000015
      0.00000      0.00000      0.00000        19.318149     -0.000002      0.000015
    total drift:                                0.000000      0.000000      0.000000

 BORN EFFECTIVE CHARGE FOR ION    1 DIRECTION 1 :   2.702   0.000   0.000
                   rigid augmentation           :   0.213   0.000  -0.000
                   ionic contribution           :   4.000   0.000  -0.000
                   Berry contribution           :  -1.511   0.000   0.000

 Linear response progress:
  Degree of freedom:   2/  4
  LATTYP: Found a face centered cubic cell.
 ALAT       =     4.3539929131

[...]

The dynamic configuration has the point symmetry C_1 .

[...]

 Linear response progress:
  Degree of freedom:   4/  4
  LATTYP: Found a face centered cubic cell.
 ALAT       =     4.3539929131

[...]

----------------------------------------- Iteration    9(  12)  ---------------------------------------

 Broyden mixing:
  rms(total) = 0.40447E-06    rms(broyden)= 0.40437E-06
  rms(prec ) = 0.89634E-06
  weight for this iteration     100.00

 eigenvalues of (default mixing * dielectric matrix)
  average eigenvalue GAMMA=   1.8643
  2.9504  2.6288  2.6041  2.4306  1.8278  2.0934  0.9880  1.0076  1.0137  1.0984

 Free energy of the ion-electron system (eV)
  -Hartree energ DENC   =        -0.02978310
  -V(xc)+E(xc)   XCENC  =         0.00006493
  PAW double counting   =         0.01517036       -0.01517136
  entropy T*S    EENTRO =         0.00000000
  eigenvalues    EBANDS =        -0.09554969
  free energy    TOTEN  =        -0.12526886 eV

  energy without entropy =       -0.12526886

[...]

 k-point 476 :      -0.2500    0.2500    0.5000
  band No.  band energies     occupation
      1       0.0003      0.00000
      2       0.0001      0.00000
      3       0.0002      0.00000
      4       0.0001      0.00000
      5       0.0001      0.00000
      6       0.0000      0.00000
      7       0.0002      0.00000
      8       0.0000      0.00000

------------------------ aborting loop because EDIFF is reached ----------------------------------------

 INTERNAL STRAIN TENSOR  FOR ION    2  DIRECTION 3   (eV/Angst):
     0.00059 -8.45286  0.02053
    -8.45286  0.00059  0.02053
    -0.02424 -0.02424 -0.00161

 POSITION                   FORCE-CONSTANT FOR ION    2 DIRECTION 3 (eV/Angst/Angst)
     -1.08850      1.08850      1.08850         0.000122      0.000122     19.318727
      0.00000      0.00000      0.00000        -0.000122     -0.000122    -19.318727
    total drift:                                0.000000      0.000000      0.000000

 BORN EFFECTIVE CHARGE FOR ION    2 DIRECTION 3 :  -0.000  -0.000  -2.702
                   rigid augmentation           :  -0.000   0.000  -0.092
                   ionic contribution           :  -0.000   0.000   4.000
                   Berry contribution           :  -0.000  -0.000  -6.611

  LATTYP: Found a face centered cubic cell.
 ALAT       =     4.3539929131

  Lattice vectors:

 A1 = (  -2.1769964566,   0.0000000000,   2.1769964566)
 A2 = (   0.0000000000,   2.1769964566,   2.1769964566)
 A3 = (  -2.1769964566,   2.1769964566,   0.0000000000)

Analysis of symmetry for initial positions (statically):
 Subroutine PRICEL returns:
 Original cell was already a primitive cell.

[...]

The static configuration has the point symmetry C_1h.

Analysis of symmetry for dynamics (positions and initial velocities):
 Subroutine PRICEL returns:
 Original cell was already a primitive cell.

 Routine SETGRP: Setting up the symmetry group for a
 face centered cubic supercell.

 Subroutine GETGRP returns: Found  2 space group operations
 (whereof  2 operations were pure point group operations)
 out of a pool of 48 trial point group operations.

The dynamic configuration has the point symmetry C_1h.

 Subroutine INISYM returns: Found  2 space group operations
 (whereof  2 operations are pure point group operations),
 and found     1 'primitive' translations

 MACROSCOPIC STATIC DIELECTRIC TENSOR (including local field effects in DFT)
           6.943937    -0.001890     0.000032
          -0.001890     6.943937     0.000032
          -0.000002    -0.000002     6.942129

 PIEZOELECTRIC TENSOR  for field in x, y, z        (e  Angst)
          XX          YY          ZZ          XY          YZ          ZX
  x    -0.00021    -0.00023     0.00041     0.00021    -1.28300     0.00013
  y    -0.00013     0.00058    -0.00041    -0.00020     0.00012    -1.28299
  z    -0.00007    -0.00007     0.00004    -1.28655    -0.00006    -0.00005

 PIEZOELECTRIC TENSOR  for field in x, y, z        (C/m^2)
          XX          YY          ZZ          XY          YZ          ZX
  x     0.00014    -0.00014    -0.00000     0.00000    -0.99617     0.00010
  y    -0.00014     0.00014    -0.00000     0.00000     0.00010    -0.99617
  z    -0.00006    -0.00006     0.00003    -0.99893    -0.00004    -0.00004

 BORN EFFECTIVE CHARGES (in e, cummulative output)
 ion    1
    1     2.70247    -0.00005    -0.00000
    2    -0.00006     2.70247     0.00000
    3    -0.00000    -0.00000     2.70247
 ion    2
    1    -2.70247     0.00005     0.00000
    2     0.00006    -2.70247    -0.00000
    3     0.00000     0.00000    -2.70247

 INTERNAL STRAIN TENSOR FOR ION    1 for displacements in x,y,z  (eV/Angst):
          X           Y           Z          XY          YZ          ZX
  x    -0.00854     0.01185    -0.00378    -0.04684     7.95316    -0.32588
  y     0.01185    -0.00854    -0.00378     0.05035     0.35787     7.75266
  z     0.01032     0.01032    -0.02001     7.94939    -0.03000     0.09401

 INTERNAL STRAIN TENSOR FOR ION    2 for displacements in x,y,z  (eV/Angst):
          X           Y           Z          XY          YZ          ZX
  x     0.00309    -0.00124    -0.00112    -0.01781    -8.41157    -0.11981
  y    -0.00124     0.00309    -0.00112     0.01497     0.11607    -8.48285
  z     0.00059     0.00059    -0.00161    -8.45286    -0.02424     0.02053

 SECOND DERIVATIVES (NOT SYMMETRIZED)
               1X          1Y          1Z          2X          2Y          2Z
  1X   -19.318149    0.000002   -0.000015   19.318149   -0.000002    0.000015
  1Y     0.000002  -19.318149   -0.000015   -0.000002   19.318149    0.000015
  1Z    -0.000057   -0.000057  -19.318245    0.000057    0.000057   19.318245
  2X    19.318887    0.000091    0.000512  -19.318887   -0.000091   -0.000512
  2Y     0.000091   19.318887    0.000512   -0.000091  -19.318887   -0.000512
  2Z     0.000122    0.000122   19.318727   -0.000122   -0.000122  -19.318727

 Eigenvectors and eigenvalues of the dynamical matrix

   1 f  =   23.690089 THz   148.849218 2PiTHz  790.216281 cm-1    97.974367 meV
             X         Y         Z           dx          dy          dz
     -1.088498  1.088498  1.088498    -0.301946   -0.301946   -0.342347
      0.000000  0.000000  0.000000     0.461735    0.461735    0.523505

[...]

   3 f  =   23.689675 THz   148.846620 2PiTHz  790.202489 cm-1    97.972657 meV
             X         Y         Z           dx          dy          dz
     -1.088498  1.088498  1.088498    -0.242079   -0.242079    0.427024
      0.000000  0.000000  0.000000     0.370172    0.370172   -0.652987

   4 f/i=    0.000081 THz     0.000511 2PiTHz    0.002713 cm-1     0.000336 meV
             X         Y         Z           dx          dy          dz
     -1.088498  1.088498  1.088498    -0.208810   -0.208811    0.783098
      0.000000  0.000000  0.000000    -0.136552   -0.136553    0.512113

[...]

   6 f/i=    0.000325 THz     0.002045 2PiTHz    0.010854 cm-1     0.001346 meV
             X         Y         Z           dx          dy          dz
     -1.088498  1.088498  1.088498     0.553737    0.553737    0.295307
      0.000000  0.000000  0.000000     0.362115    0.362115    0.193108

 MACROSCOPIC STATIC DIELECTRIC TENSOR IONIC CONTRIBUTION
           3.315205    -0.000141    -0.000034
          -0.000141     3.315202    -0.000027
          -0.000034    -0.000027     3.315214

 ELASTIC MODULI IONIC CONTR (kBar)
 Direction    XX          YY          ZZ          XY          YZ          ZX
 XX          -0.0004      0.0002      0.0002     -0.1612      0.1881     -0.2168
 YY           0.0002     -0.0004      0.0002     -0.1596     -0.2125      0.1917
 ZZ           0.0002      0.0002     -0.0004      0.3031      0.0442      0.0441
 XY          -0.1612     -0.1596      0.3031   -270.3240      0.5661     -1.7919
 YZ           0.1881     -0.2125      0.0442      0.5661   -269.1452     -0.5549
 ZX          -0.2168      0.1917      0.0441     -1.7919     -0.5549   -264.9017

 PIEZOELECTRIC TENSOR IONIC CONTR  for field in x, y, z        (C/m^2)
          XX          YY          ZZ          XY          YZ          ZX
  x    -0.00063     0.00071    -0.00014    -0.00159     0.88874    -0.01121
  y     0.00071    -0.00063    -0.00014     0.00191     0.01311     0.88172
  z     0.00053     0.00053    -0.00100     0.89078    -0.00032     0.00398