 vasp.5.4.4.18Apr17-6-g9f103f2a35 (build Aug 24 2017 11:22:49) complex

 executed on             LinuxIFC date 2023.12.25  13:07:27

 INCAR:
 POTCAR:    PAW_PBE Rb_sv 06Sep2000
 POTCAR:    PAW_PBE F 08Apr2002

 POTCAR:    PAW_PBE Rb_sv 06Sep2000
   VRHFIN =Rb: 4s4p5s

   TITEL  = PAW_PBE Rb_sv 06Sep2000
   POMASS =   85.468; ZVAL   =    9.000    mass and valenz
   ENMAX  =  220.112; ENMIN  =  165.084 eV

 POTCAR:    PAW_PBE F 08Apr2002
   VRHFIN =F: s2p5

   TITEL  = PAW_PBE F 08Apr2002
   POMASS =   18.998; ZVAL   =    7.000    mass and valenz
   ENMAX  =  400.000; ENMIN  =  300.000 eV

  PAW_PBE Rb_sv 06Sep2000               :
  PAW_PBE F 08Apr2002                   :

 POSCAR: Rb1 F1
  positions in direct lattice
 exchange correlation table for  LEXCH =        8
   RHO(1)=    0.500       N(1)  =     2000
   RHO(2)=  100.500       N(2)  =     4000

 ion  position               nearest neighbor table
   1  0.000  0.000  0.000-   2 2.92   2 2.92   2 2.92   2 2.92   2 2.92   2 2.92   2 2.92   2 2.92

   2  0.500  0.500  0.500-   1 2.92   1 2.92   1 2.92   1 2.92   1 2.92   1 2.92   1 2.92   1 2.92

  LATTYP: Found a simple cubic cell.
 ALAT       =     3.3704469211

  Lattice vectors:

 A1 = (   3.3704469211,   0.0000000000,   0.0000000000)
 A2 = (   0.0000000000,   3.3704469211,   0.0000000000)
 A3 = (   0.0000000000,   0.0000000000,   3.3704469211)

Analysis of symmetry for initial positions (statically):
 Subroutine PRICEL returns:
 Original cell was already a primitive cell.

 Routine SETGRP: Setting up the symmetry group for a
 simple cubic supercell.

 Subroutine GETGRP returns: Found  6 space group operations
 (whereof  6 operations were pure point group operations)
 out of a pool of 48 trial point group operations.

The static configuration has the point symmetry C_3v.

Analysis of symmetry for dynamics (positions and initial velocities):
 Subroutine PRICEL returns:
 Original cell was already a primitive cell.

[...]

The dynamic configuration has the point symmetry C_3v.

 Subroutine INISYM returns: Found  6 space group operations
 (whereof  6 operations are pure point group operations),
 and found     1 'primitive' translations

 KPOINTS: pymatgen with grid density = 3000 / numb

Automatic generation of k-mesh.
Space group operators:
 irot       det(A)        alpha          n_x          n_y          n_z        tau_x        tau_y        tau_z
    1     1.000000     0.000001     1.000000     0.000000     0.000000     0.000000     0.000000     0.000000
    2     1.000000   120.000000    -0.577350    -0.577350    -0.577350     0.000000     0.000000     0.000000
    3     1.000000   120.000000     0.577350     0.577350     0.577350     0.000000     0.000000     0.000000
    4    -1.000000   180.000000     0.000000    -0.707107     0.707107     0.000000     0.000000     0.000000
    5    -1.000000   180.000000     0.707107    -0.707107     0.000000     0.000000     0.000000     0.000000
    6    -1.000000   180.000000     0.707107     0.000000    -0.707107     0.000000     0.000000     0.000000

 Subroutine IBZKPT returns following result:

 Found    189 irreducible k-points:

 Following reciprocal coordinates:
            Coordinates               Weight
  0.000000  0.000000  0.000000      1.000000
  0.083333  0.000000  0.000000      6.000000
  0.166667  0.000000  0.000000      6.000000
  0.250000  0.000000  0.000000      6.000000
  0.333333  0.000000  0.000000      6.000000
  0.416667  0.000000  0.000000      6.000000
  0.500000  0.000000  0.000000      3.000000
  0.083333  0.083333  0.000000      6.000000
  0.166667  0.083333  0.000000     12.000000
  0.250000  0.083333  0.000000     12.000000
  0.333333  0.083333  0.000000     12.000000
  0.416667  0.083333  0.000000     12.000000
  0.500000  0.083333  0.000000     12.000000
 -0.416667  0.083333  0.000000     12.000000
 -0.333333  0.083333  0.000000     12.000000
 -0.250000  0.083333  0.000000     12.000000
 -0.166667  0.083333  0.000000     12.000000
 -0.083333  0.083333  0.000000      6.000000
  0.166667  0.166667  0.000000      6.000000
  0.250000  0.166667  0.000000     12.000000
  0.333333  0.166667  0.000000     12.000000
  0.416667  0.166667  0.000000     12.000000
  0.500000  0.166667  0.000000     12.000000
 -0.416667  0.166667  0.000000     12.000000
 -0.333333  0.166667  0.000000     12.000000
 -0.250000  0.166667  0.000000     12.000000
 -0.166667  0.166667  0.000000      6.000000
  0.250000  0.250000  0.000000      6.000000
  0.333333  0.250000  0.000000     12.000000
  0.416667  0.250000  0.000000     12.000000
  0.500000  0.250000  0.000000     12.000000
 -0.416667  0.250000  0.000000     12.000000
 -0.333333  0.250000  0.000000     12.000000
 -0.250000  0.250000  0.000000      6.000000
  0.333333  0.333333  0.000000      6.000000
  0.416667  0.333333  0.000000     12.000000
  0.500000  0.333333  0.000000     12.000000
 -0.416667  0.333333  0.000000     12.000000
 -0.333333  0.333333  0.000000      6.000000
  0.416667  0.416667  0.000000      6.000000
  0.500000  0.416667  0.000000     12.000000
 -0.416667  0.416667  0.000000      6.000000
  0.500000  0.500000  0.000000      3.000000
  0.083333  0.083333  0.083333      2.000000
  0.166667  0.083333  0.083333      6.000000
  0.250000  0.083333  0.083333      6.000000
  0.333333  0.083333  0.083333      6.000000
  0.416667  0.083333  0.083333      6.000000
  0.500000  0.083333  0.083333      6.000000
 -0.416667  0.083333  0.083333      6.000000
 -0.333333  0.083333  0.083333      6.000000
 -0.250000  0.083333  0.083333      6.000000
 -0.166667  0.083333  0.083333      6.000000
 -0.083333  0.083333  0.083333      6.000000
  0.166667  0.166667  0.083333      6.000000
  0.250000  0.166667  0.083333     12.000000
  0.333333  0.166667  0.083333     12.000000
  0.416667  0.166667  0.083333     12.000000
  0.500000  0.166667  0.083333     12.000000
 -0.416667  0.166667  0.083333     12.000000
[...]
 -0.333333  0.333333  0.333333      6.000000
  0.416667  0.416667  0.333333      6.000000
  0.500000  0.416667  0.333333     12.000000
 -0.416667  0.416667  0.333333     12.000000
 -0.333333  0.416667  0.333333     12.000000
  0.500000  0.500000  0.333333      6.000000
 -0.416667  0.500000  0.333333     12.000000
 -0.333333  0.500000  0.333333      6.000000
 -0.416667 -0.416667  0.333333      6.000000
  0.416667  0.416667  0.416667      2.000000
  0.500000  0.416667  0.416667      6.000000
 -0.416667  0.416667  0.416667      6.000000
  0.500000  0.500000  0.416667      6.000000
 -0.416667  0.500000  0.416667      6.000000
  0.500000  0.500000  0.500000      1.000000

 Following cartesian coordinates:
            Coordinates               Weight
  0.000000  0.000000  0.000000      1.000000
  0.024725  0.000000  0.000000      6.000000
  0.049449  0.000000  0.000000      6.000000
  0.074174  0.000000  0.000000      6.000000
  0.098899  0.000000  0.000000      6.000000
  0.123624  0.000000  0.000000      6.000000
  0.148348  0.000000  0.000000      3.000000
  0.024725  0.024725  0.000000      6.000000
  0.049449  0.024725  0.000000     12.000000
  0.074174  0.024725  0.000000     12.000000
  0.098899  0.024725  0.000000     12.000000
  0.123624  0.024725  0.000000     12.000000
  0.148348  0.024725  0.000000     12.000000
 -0.123624  0.024725  0.000000     12.000000
 -0.098899  0.024725  0.000000     12.000000
 -0.074174  0.024725  0.000000     12.000000
 -0.049449  0.024725  0.000000     12.000000
 -0.024725  0.024725  0.000000      6.000000
  0.049449  0.049449  0.000000      6.000000
  0.074174  0.049449  0.000000     12.000000
  0.098899  0.049449  0.000000     12.000000
  0.123624  0.049449  0.000000     12.000000
  0.148348  0.049449  0.000000     12.000000
 -0.123624  0.049449  0.000000     12.000000
 -0.098899  0.049449  0.000000     12.000000
 -0.074174  0.049449  0.000000     12.000000
 -0.049449  0.049449  0.000000      6.000000
  0.074174  0.074174  0.000000      6.000000
  0.098899  0.074174  0.000000     12.000000
  0.123624  0.074174  0.000000     12.000000
  0.148348  0.074174  0.000000     12.000000
 -0.123624  0.074174  0.000000     12.000000
 -0.098899  0.074174  0.000000     12.000000
 -0.074174  0.074174  0.000000      6.000000
  0.098899  0.098899  0.000000      6.000000
  0.123624  0.098899  0.000000     12.000000
  0.148348  0.098899  0.000000     12.000000
 -0.123624  0.098899  0.000000     12.000000
 -0.098899  0.098899  0.000000      6.000000
  0.123624  0.123624  0.000000      6.000000
  0.148348  0.123624  0.000000     12.000000
 -0.123624  0.123624  0.000000      6.000000
  0.148348  0.148348  0.000000      3.000000
  0.024725  0.024725  0.024725      2.000000
  0.049449  0.024725  0.024725      6.000000
  0.074174  0.024725  0.024725      6.000000
  0.098899  0.024725  0.024725      6.000000
  0.123624  0.024725  0.024725      6.000000
  0.148348  0.024725  0.024725      6.000000
 -0.123624  0.024725  0.024725      6.000000
 -0.098899  0.024725  0.024725      6.000000
 -0.074174  0.024725  0.024725      6.000000
 -0.049449  0.024725  0.024725      6.000000
 -0.024725  0.024725  0.024725      6.000000
  0.049449  0.049449  0.024725      6.000000
  0.074174  0.049449  0.024725     12.000000
  0.098899  0.049449  0.024725     12.000000
  0.123624  0.049449  0.024725     12.000000
  0.148348  0.049449  0.024725     12.000000
 -0.123624  0.049449  0.024725     12.000000
[...]
 -0.098899  0.098899  0.098899      6.000000
  0.123624  0.123624  0.098899      6.000000
  0.148348  0.123624  0.098899     12.000000
 -0.123624  0.123624  0.098899     12.000000
 -0.098899  0.123624  0.098899     12.000000
  0.148348  0.148348  0.098899      6.000000
 -0.123624  0.148348  0.098899     12.000000
 -0.098899  0.148348  0.098899      6.000000
 -0.123624 -0.123624  0.098899      6.000000
  0.123624  0.123624  0.123624      2.000000
  0.148348  0.123624  0.123624      6.000000
 -0.123624  0.123624  0.123624      6.000000
  0.148348  0.148348  0.123624      6.000000
 -0.123624  0.148348  0.123624      6.000000
  0.148348  0.148348  0.148348      1.000000

 Subroutine IBZKPT_HF returns following result:

 Found   1728 k-points in 1st BZ
 the following   1728 k-points will be used (e.g. in the exchange kernel)
 Following reciprocal coordinates:   # in IRBZ
  0.000000  0.000000  0.000000    0.00057870   1 t-inv F
  0.083333  0.000000  0.000000    0.00057870   2 t-inv F
  0.166667  0.000000  0.000000    0.00057870   3 t-inv F
  0.250000  0.000000  0.000000    0.00057870   4 t-inv F
  0.333333  0.000000  0.000000    0.00057870   5 t-inv F
  0.416667  0.000000  0.000000    0.00057870   6 t-inv F
  0.500000  0.000000  0.000000    0.00057870   7 t-inv F
  0.083333  0.083333  0.000000    0.00057870   8 t-inv F
  0.166667  0.083333  0.000000    0.00057870   9 t-inv F
  0.250000  0.083333  0.000000    0.00057870  10 t-inv F
  0.333333  0.083333  0.000000    0.00057870  11 t-inv F
  0.416667  0.083333  0.000000    0.00057870  12 t-inv F
  0.500000  0.083333  0.000000    0.00057870  13 t-inv F
 -0.416667  0.083333  0.000000    0.00057870  14 t-inv F
 -0.333333  0.083333  0.000000    0.00057870  15 t-inv F
 -0.250000  0.083333  0.000000    0.00057870  16 t-inv F
[...]
      3      -8.7494      2.00000
      4      -8.7494      2.00000
      5      -8.7494      2.00000
      6      -1.5883      2.00000
      7      -1.5883      2.00000
      8      -1.5883      2.00000
      9       4.7853      0.00000
     10       6.0790      0.00000
     11       6.0790      0.00000
     12      13.2300      0.00000
     13      13.2300      0.00000
     14      13.2300      0.00000
     15      18.8595      0.00000
     16      18.8595      0.00000

[...]

 soft charge-density along one line, spin component           1
         0         1         2         3         4         5         6         7         8         9
 total charge-density along one line

------------------------ aborting loop because EDIFF is reached ----------------------------------------

  FORCE on cell =-STRESS in cart. coord.  units (eV):
  Direction    XX          YY          ZZ          XY          YZ          ZX
  Alpha Z    83.04893    83.04893    83.04893
  Ewald    -334.59228  -334.59228  -334.59228     0.00000     0.00000     0.00000
  Hartree   105.55039   105.55039   105.55039    -0.00000    -0.00000    -0.00000
  E(xc)     -72.99055   -72.99055   -72.99055     0.00000     0.00000     0.00000
  Local      -1.98184    -1.98184    -1.98184     0.00000     0.00000     0.00000
  n-local   -82.01434   -82.38733   -83.20123    -0.00133     0.03263    -0.03130
  augment    17.22488    17.22488    17.22488    -0.00000    -0.00000     0.00000
  Kinetic   282.63238   284.85474   293.17192     0.04091     0.41567    -0.45657
  Fock        0.00000     0.00000     0.00000     0.00000     0.00000     0.00000
  Total       0.61159     0.61159     0.61159     0.00000     0.00000     0.00000
  in kB      25.59215    25.59215    25.59215     0.00000     0.00000     0.00000

 VOLUME and BASIS-vectors are now :
  energy-cutoff  :      520.00
  volume of cell :       38.29
      direct lattice vectors                 reciprocal lattice vectors
     3.370446921  0.000000000  0.000000000     0.296696558  0.000000000  0.000000000
     0.000000000  3.370446921  0.000000000     0.000000000  0.296696558  0.000000000
     0.000000000  0.000000000  3.370446921     0.000000000  0.000000000  0.296696558

  length of vectors
     3.370446921  3.370446921  3.370446921     0.296696558  0.296696558  0.296696558

 FORCES acting on ions
    electron-ion (+dipol)            ewald-force                    non-local-force                 convergence-correction
   -.133E-04 -.133E-04 -.133E-04   0.128E-04 0.128E-04 0.128E-04   0.616E-06 0.616E-06 0.616E-06   -.266E-07 -.266E-07 -.266E-07
   0.121E-04 0.121E-04 0.121E-04   -.128E-04 -.128E-04 -.128E-04   0.630E-06 0.630E-06 0.630E-06   -.294E-09 -.294E-09 -.294E-09
   -.120E-05 -.120E-05 -.120E-05   0.685E-15 -.167E-15 0.702E-15   0.125E-05 0.125E-05 0.125E-05   -.269E-07 -.269E-07 -.269E-07

 POSITION                                       TOTAL-FORCE (eV/Angst)
      0.00000      0.00000      0.00000         0.000000      0.000000      0.000000
      1.68522      1.68522      1.68522        -0.000000     -0.000000     -0.000000
    total drift:                                0.000000      0.000000      0.000000

  FREE ENERGIE OF THE ION-ELECTRON SYSTEM (eV)
  free  energy   TOTEN  =        -7.84481122 eV

  energy  without entropy=       -7.84481122  energy(sigma->0) =       -7.84481122

 Found     2 degrees of freedom:

     directions for atom     1:  x
     directions for atom     2:  x
 Linear response reoptimize wavefunctions
 Linear response to external field (no local field effect), progress :
  Direction:   1
  LATTYP: Found a simple cubic cell.
 ALAT       =     3.3704469211

[...]

The dynamic configuration has the point symmetry C_1h.

[...]

----------------------------------------- Iteration    1(   1)  ---------------------------------------

 Free energy of the ion-electron system (eV)
  -Hartree energ DENC   =         0.00000000
  -V(xc)+E(xc)   XCENC  =         0.00000000
  PAW double counting   =         0.00000000        0.00000000
  entropy T*S    EENTRO =         0.00000000
  eigenvalues    EBANDS =        -0.12741738
  free energy    TOTEN  =        -0.12741738 eV

  energy without entropy =       -0.12741738

[...]

 change of polarisation eV/A/(eV/A) component  1 :     0.263     0.002    -0.022
 dielectric tensor                  component  1 :     2.242     0.008    -0.102

 Linear response to external field (no local field effect), progress :
  Direction:   2
  LATTYP: Found a simple cubic cell.
 ALAT       =     3.3704469211

[...]

 Linear response to external field (no local field effect), progress :
  Direction:   3
  LATTYP: Found a simple cubic cell.
 ALAT       =     3.3704469211

[...]

 HEAD OF MICROSCOPIC STATIC DIELECTRIC TENSOR (INDEPENDENT PARTICLE, excluding Hartree and local field effects)
           2.476617    -0.000000    -0.000000
          -0.000000     2.476617    -0.000000
          -0.000000    -0.000000     2.476617

 Linear response to external field, progress :
  Direction:   1
  LATTYP: Found a simple cubic cell.
 ALAT       =     3.3704469211

[...]

 PIEZOELECTRIC TENSOR FIELD DIRECTION 1  (e Angst)
    -0.00003  0.00005  0.00005           (  0.00000 -0.00000 -0.00000)
     0.00005 -0.00001 -0.00001           ( -0.00000  0.00000 -0.00000)
     0.00005 -0.00001 -0.00001           ( -0.00000 -0.00000  0.00000)

 PIEZOELECTRIC TENSOR FIELD DIRECTION 1  (C/m^2)
    -0.00001  0.00002  0.00002
     0.00002 -0.00000 -0.00000
     0.00002 -0.00000 -0.00000

      POSITION         DIRECTION 1           BORN EFFECTIVE CHARGE    (rigid.aug.   ionic)
      0.00000      0.00000      0.00000     1.24639 -0.00000 -0.00000 (  0.13000  9.00000)
      1.68522      1.68522      1.68522    -1.24635  0.00000  0.00000 ( -1.27582  7.00000)
    total drift (improves with k-points):   0.00004  0.00000  0.00000

[...]

 Linear response to external field, progress :
  Direction:   3
  LATTYP: Found a simple cubic cell.
 ALAT       =     3.3704469211

[...]

 change of polarisation eV/A/(eV/A) component  3 :    -0.015     0.015     0.283
 dielectric tensor                  component  3 :    -0.069     0.069     2.339

 PIEZOELECTRIC TENSOR FIELD DIRECTION 3  (e Angst)
     0.00000 -0.00000  0.00001           (  0.00000 -0.00000 -0.00000)
    -0.00000  0.00000  0.00001           ( -0.00000  0.00000 -0.00000)
     0.00001  0.00001 -0.00027           ( -0.00000 -0.00000  0.00000)

 PIEZOELECTRIC TENSOR FIELD DIRECTION 3  (C/m^2)
     0.00000 -0.00000  0.00000
    -0.00000  0.00000  0.00000
     0.00000  0.00000 -0.00011

      POSITION         DIRECTION 3           BORN EFFECTIVE CHARGE    (rigid.aug.   ionic)
      0.00000      0.00000      0.00000    -0.00000 -0.00000  1.24639 (  0.13000  9.00000)
      1.68522      1.68522      1.68522     0.00000  0.00000 -1.24635 ( -1.27582  7.00000)
    total drift (improves with k-points):   0.00000  0.00000  0.00005

[...]

 MACROSCOPIC STATIC DIELECTRIC TENSOR (including local field effects in DFT)
           2.339356    -0.000000    -0.000000
          -0.000000     2.339356    -0.000000
          -0.000000    -0.000000     2.339356

 Linear response:
   Degrees of freedom DOF   =            2
 Linear response progress:
  Degree of freedom:   1/  2
  LATTYP: Found a simple cubic cell.
 ALAT       =     3.3704469211

[...]

 INTERNAL STRAIN TENSOR  FOR ION    1  DIRECTION 1   (eV/Angst):
     0.00038 -0.00071 -0.00071
    -0.00072  0.00011  0.00002
    -0.00072  0.00002  0.00011

 POSITION                   FORCE-CONSTANT FOR ION    1 DIRECTION 1 (eV/Angst/Angst)
      0.00000      0.00000      0.00000        -1.001649      0.000001      0.000001
      1.68522      1.68522      1.68522         1.001649     -0.000001     -0.000001
    total drift:                                0.000000     -0.000000      0.000000

 BORN EFFECTIVE CHARGE FOR ION    1 DIRECTION 1 :   1.246  -0.000  -0.000
                   rigid augmentation           :   0.130   0.000   0.000
                   ionic contribution           :   9.000   0.000   0.000
                   Berry contribution           :  -7.884  -0.000  -0.000

 Linear response progress:
  Degree of freedom:   2/  2
  LATTYP: Found a simple cubic cell.
 ALAT       =     3.3704469211

[...]

The dynamic configuration has the point symmetry C_1h.

[...]

----------------------------------------- Iteration    7(  12)  ---------------------------------------

 Broyden mixing:
  rms(total) = 0.16674E-05    rms(broyden)= 0.16670E-05
  rms(prec ) = 0.48196E-05
  weight for this iteration     100.00

 eigenvalues of (default mixing * dielectric matrix)
  average eigenvalue GAMMA=   1.8550
  2.9971  2.9128  2.5466  2.3878  2.0327  1.6274  1.0943  1.0010  1.0438  0.9067

 Free energy of the ion-electron system (eV)
  -Hartree energ DENC   =        -0.18488289
  -V(xc)+E(xc)   XCENC  =         0.00063336
  PAW double counting   =         0.00013577       -0.00013566
  entropy T*S    EENTRO =        -0.00000000
  eigenvalues    EBANDS =        -0.35138600
  free energy    TOTEN  =        -0.53563542 eV

  energy without entropy =       -0.53563542

[...]

 k-point 476 :       0.4167    0.5000    0.5000
  band No.  band energies     occupation
      1      -0.0000      0.00000
      2       0.0001      0.00000
      3      -0.0000      0.00000
      4      -0.0000      0.00000
      5      -0.0000      0.00000
      6       0.0001      0.00000
      7       0.0001      0.00000
      8       0.0001      0.00000
      9       0.0000      0.00000
     10       0.0000      0.00000
     11       0.0000      0.00000
     12       0.0000      0.00000
     13       0.0000      0.00000
     14       0.0000      0.00000
     15      -0.0000      0.00000
     16      -0.0000      0.00000

------------------------ aborting loop because EDIFF is reached ----------------------------------------

 INTERNAL STRAIN TENSOR  FOR ION    2  DIRECTION 1   (eV/Angst):
     0.00035 -0.00042 -0.00042
    -0.00043 -0.00000  0.00015
    -0.00043  0.00015 -0.00000

 POSITION                   FORCE-CONSTANT FOR ION    2 DIRECTION 1 (eV/Angst/Angst)
      0.00000      0.00000      0.00000         0.943468      0.000020      0.000020
      1.68522      1.68522      1.68522        -0.943468     -0.000020     -0.000020
    total drift:                                0.000000     -0.000000     -0.000000

 BORN EFFECTIVE CHARGE FOR ION    2 DIRECTION 1 :  -1.246   0.000   0.000
                   rigid augmentation           :  -1.276   0.000   0.000
                   ionic contribution           :   7.000   0.000   0.000
                   Berry contribution           :  -6.971   0.000   0.000

  LATTYP: Found a simple cubic cell.
 ALAT       =     3.3704469211

  Lattice vectors:

 A1 = (   3.3704469211,   0.0000000000,   0.0000000000)
 A2 = (   0.0000000000,   3.3704469211,   0.0000000000)
 A3 = (   0.0000000000,   0.0000000000,   3.3704469211)

Analysis of symmetry for initial positions (statically):
 Subroutine PRICEL returns:
 Original cell was already a primitive cell.

[...]

The static configuration has the point symmetry C_3v.

Analysis of symmetry for dynamics (positions and initial velocities):
 Subroutine PRICEL returns:
 Original cell was already a primitive cell.

 Routine SETGRP: Setting up the symmetry group for a
 simple cubic supercell.

 Subroutine GETGRP returns: Found  6 space group operations
 (whereof  6 operations were pure point group operations)
 out of a pool of 48 trial point group operations.

The dynamic configuration has the point symmetry C_3v.

 Subroutine INISYM returns: Found  6 space group operations
 (whereof  6 operations are pure point group operations),
 and found     1 'primitive' translations

 MACROSCOPIC STATIC DIELECTRIC TENSOR (including local field effects in DFT)
           2.339356    -0.000000    -0.000000
          -0.000000     2.339356    -0.000000
          -0.000000    -0.000000     2.339356

 PIEZOELECTRIC TENSOR  for field in x, y, z        (e  Angst)
          XX          YY          ZZ          XY          YZ          ZX
  x    -0.00003    -0.00001    -0.00001     0.00005    -0.00001     0.00005
  y     0.00000    -0.00007     0.00000     0.00005     0.00005    -0.00001
  z     0.00000     0.00000    -0.00027    -0.00000     0.00001     0.00001

 PIEZOELECTRIC TENSOR  for field in x, y, z        (C/m^2)
          XX          YY          ZZ          XY          YZ          ZX
  x    -0.00005    -0.00000    -0.00000     0.00001    -0.00000     0.00001
  y    -0.00000    -0.00005    -0.00000     0.00001     0.00001    -0.00000
  z    -0.00000    -0.00000    -0.00005    -0.00000     0.00001     0.00001

 BORN EFFECTIVE CHARGES (in e, cummulative output)
 ion    1
    1     1.24637    -0.00000    -0.00000
    2    -0.00000     1.24636    -0.00000
    3    -0.00000    -0.00000     1.24637
 ion    2
    1    -1.24637     0.00000     0.00000
    2     0.00000    -1.24636     0.00000
    3     0.00000     0.00000    -1.24637

 INTERNAL STRAIN TENSOR FOR ION    1 for displacements in x,y,z  (eV/Angst):
          X           Y           Z          XY          YZ          ZX
  x     0.00038     0.00011     0.00011    -0.00072     0.00002    -0.00071
  y     0.00011     0.00038     0.00011    -0.00071    -0.00072     0.00002
  z     0.00011     0.00011     0.00038     0.00002    -0.00071    -0.00072

 INTERNAL STRAIN TENSOR FOR ION    2 for displacements in x,y,z  (eV/Angst):
          X           Y           Z          XY          YZ          ZX
  x     0.00035    -0.00000    -0.00000    -0.00043     0.00015    -0.00042
  y    -0.00000     0.00035    -0.00000    -0.00042    -0.00043     0.00015
  z    -0.00000    -0.00000     0.00035     0.00015    -0.00042    -0.00043

 SECOND DERIVATIVES (NOT SYMMETRIZED)
               1X          1Y          1Z          2X          2Y          2Z
  1X    -1.001649    0.000001    0.000001    1.001649   -0.000001   -0.000001
  1Y     0.000001   -1.001649    0.000001   -0.000001    1.001649   -0.000001
  1Z     0.000001    0.000001   -1.001649   -0.000001   -0.000001    1.001649
  2X     0.943468    0.000020    0.000020   -0.943468   -0.000020   -0.000020
  2Y     0.000020    0.943468    0.000020   -0.000020   -0.943468   -0.000020
  2Z     0.000020    0.000020    0.943468   -0.000020   -0.000020   -0.943468

 Eigenvectors and eigenvalues of the dynamical matrix

   1 f  =    3.873514 THz    24.338003 2PiTHz  129.206499 cm-1    16.019570 meV
             X         Y         Z           dx          dy          dz
      0.000000  0.000000  0.000000     0.252329    0.252329    0.252329
      1.685224  1.685224  1.685224    -0.519291   -0.519291   -0.519291

[...]

   3 f  =    3.873416 THz    24.337392 2PiTHz  129.203253 cm-1    16.019167 meV
             X         Y         Z           dx          dy          dz
      0.000000  0.000000  0.000000    -0.347002    0.101373    0.245629
      1.685224  1.685224  1.685224     0.714103   -0.208617   -0.505486

   4 f/i=    0.045518 THz     0.285997 2PiTHz    1.518310 cm-1     0.188247 meV
             X         Y         Z           dx          dy          dz
      0.000000  0.000000  0.000000    -0.519291   -0.519291   -0.519291
      1.685224  1.685224  1.685224    -0.252329   -0.252329   -0.252329

[...]

   6 f/i=    0.045567 THz     0.286309 2PiTHz    1.519967 cm-1     0.188452 meV
             X         Y         Z           dx          dy          dz
      0.000000  0.000000  0.000000     0.673032   -0.590998   -0.082034
      1.685224  1.685224  1.685224     0.327044   -0.287182   -0.039862

 MACROSCOPIC STATIC DIELECTRIC TENSOR IONIC CONTRIBUTION
           7.545507    -0.000072    -0.000072
          -0.000072     7.545373    -0.000072
          -0.000072    -0.000072     7.545475

 ELASTIC MODULI IONIC CONTR (kBar)
 Direction    XX          YY          ZZ          XY          YZ          ZX
 XX          -0.0000     -0.0000     -0.0000      0.0000      0.0000      0.0000
 YY          -0.0000     -0.0000     -0.0000      0.0000      0.0000      0.0000
 ZZ          -0.0000     -0.0000     -0.0000      0.0000      0.0000      0.0000
 XY           0.0000      0.0000      0.0000     -0.0000     -0.0000     -0.0000
 YZ           0.0000      0.0000      0.0000     -0.0000     -0.0000     -0.0000
 ZX           0.0000      0.0000      0.0000     -0.0000     -0.0000     -0.0000

 PIEZOELECTRIC TENSOR IONIC CONTR  for field in x, y, z        (C/m^2)
          XX          YY          ZZ          XY          YZ          ZX
  x     0.00001     0.00003     0.00003    -0.00008    -0.00003    -0.00008
  y     0.00003     0.00001     0.00003    -0.00008    -0.00008    -0.00003
  z     0.00003     0.00003     0.00001    -0.00003    -0.00008    -0.00008