 vasp.5.4.4.18Apr17-6-g9f103f2a35 (build Aug 24 2017 11:22:49) complex

 executed on             LinuxIFC date 2023.12.25  13:07:07

 INCAR:
 POTCAR:    PAW_PBE Ne 05Jan2001

 POTCAR:    PAW_PBE Ne 05Jan2001
   VRHFIN =Ne: s2p6

   TITEL  = PAW_PBE Ne 05Jan2001
   POMASS =   20.180; ZVAL   =    8.000    mass and valenz
   ENMAX  =  343.606; ENMIN  =  257.704 eV

  PAW_PBE Ne 05Jan2001                  :

 POSCAR: Ne1
  positions in direct lattice
 exchange correlation table for  LEXCH =        8
   RHO(1)=    0.500       N(1)  =     2000
   RHO(2)=  100.500       N(2)  =     4000

 ion  position               nearest neighbor table
   1  0.000  0.000  0.000-

  LATTYP: Found a face centered cubic cell.
 ALAT       =     4.1950192856

  Lattice vectors:

 A1 = (  -2.0975096428,   0.0000000000,   2.0975096428)
 A2 = (   0.0000000000,   2.0975096428,   2.0975096428)
 A3 = (  -2.0975096428,   2.0975096428,   0.0000000000)

Analysis of symmetry for initial positions (statically):
 Subroutine PRICEL returns:
 Original cell was already a primitive cell.

 Routine SETGRP: Setting up the symmetry group for a
 face centered cubic supercell.

 Subroutine GETGRP returns: Found 48 space group operations
 (whereof 48 operations were pure point group operations)
 out of a pool of 48 trial point group operations.

The static configuration has the point symmetry O_h .

Analysis of symmetry for dynamics (positions and initial velocities):
 Subroutine PRICEL returns:
 Original cell was already a primitive cell.

[...]

The dynamic configuration has the point symmetry O_h .

 Subroutine INISYM returns: Found 48 space group operations
 (whereof 48 operations are pure point group operations),
 and found     1 'primitive' translations

 KPOINTS: pymatgen with grid density = 3000 / numb

Automatic generation of k-mesh.
Space group operators:
 irot       det(A)        alpha          n_x          n_y          n_z        tau_x        tau_y        tau_z
    1     1.000000     0.000000     1.000000     0.000000     0.000000     0.000000     0.000000     0.000000
    2    -1.000000     0.000000     1.000000     0.000000     0.000000     0.000000     0.000000     0.000000
    3     1.000000   120.000000     0.577350    -0.577350    -0.577350     0.000000     0.000000     0.000000
    4    -1.000000   120.000000     0.577350    -0.577350    -0.577350     0.000000     0.000000     0.000000
    5     1.000000   120.000000    -0.577350     0.577350     0.577350     0.000000     0.000000     0.000000
    6    -1.000000   120.000000    -0.577350     0.577350     0.577350     0.000000     0.000000     0.000000
    7     1.000000    90.000000     0.000000     0.000000    -1.000000     0.000000     0.000000     0.000000
    8    -1.000000    90.000000     0.000000     0.000000    -1.000000     0.000000     0.000000     0.000000
    9     1.000000   180.000000     0.707107     0.000000    -0.707107     0.000000     0.000000     0.000000
   10    -1.000000   180.000000     0.707107     0.000000    -0.707107     0.000000     0.000000     0.000000
   11     1.000000    90.000000    -1.000000    -0.000000     0.000000     0.000000     0.000000     0.000000
   12    -1.000000    90.000000    -1.000000    -0.000000     0.000000     0.000000     0.000000     0.000000
   13     1.000000   180.000000     0.000000    -0.000000     1.000000     0.000000     0.000000     0.000000
   14    -1.000000   180.000000     0.000000    -0.000000     1.000000     0.000000     0.000000     0.000000
   15     1.000000   120.000000    -0.577350    -0.577350     0.577350     0.000000     0.000000     0.000000
   16    -1.000000   120.000000    -0.577350    -0.577350     0.577350     0.000000     0.000000     0.000000
   17     1.000000   120.000000    -0.577350    -0.577350    -0.577350     0.000000     0.000000     0.000000
   18    -1.000000   120.000000    -0.577350    -0.577350    -0.577350     0.000000     0.000000     0.000000
   19     1.000000    90.000000    -0.000000     0.000000     1.000000     0.000000     0.000000     0.000000
   20    -1.000000    90.000000    -0.000000     0.000000     1.000000     0.000000     0.000000     0.000000
   21     1.000000    90.000000    -0.000000    -1.000000     0.000000     0.000000     0.000000     0.000000
   22    -1.000000    90.000000    -0.000000    -1.000000     0.000000     0.000000     0.000000     0.000000
   23     1.000000   180.000000    -0.000000     0.707107     0.707107     0.000000     0.000000     0.000000
   24    -1.000000   180.000000    -0.000000     0.707107     0.707107     0.000000     0.000000     0.000000
   25     1.000000   120.000000     0.577350     0.577350     0.577350     0.000000     0.000000     0.000000
   26    -1.000000   120.000000     0.577350     0.577350     0.577350     0.000000     0.000000     0.000000
   27     1.000000   120.000000     0.577350    -0.577350     0.577350     0.000000     0.000000     0.000000
   28    -1.000000   120.000000     0.577350    -0.577350     0.577350     0.000000     0.000000     0.000000
   29     1.000000   180.000000     0.000000    -1.000000     0.000000     0.000000     0.000000     0.000000
   30    -1.000000   180.000000     0.000000    -1.000000     0.000000     0.000000     0.000000     0.000000
   31     1.000000    90.000000     1.000000     0.000000    -0.000000     0.000000     0.000000     0.000000
   32    -1.000000    90.000000     1.000000     0.000000    -0.000000     0.000000     0.000000     0.000000
   33     1.000000   180.000000     0.707107    -0.707107     0.000000     0.000000     0.000000     0.000000
   34    -1.000000   180.000000     0.707107    -0.707107     0.000000     0.000000     0.000000     0.000000
   35     1.000000    90.000000     0.000000     1.000000     0.000000     0.000000     0.000000     0.000000
   36    -1.000000    90.000000     0.000000     1.000000     0.000000     0.000000     0.000000     0.000000
   37     1.000000   120.000000     0.577350     0.577350    -0.577350     0.000000     0.000000     0.000000
   38    -1.000000   120.000000     0.577350     0.577350    -0.577350     0.000000     0.000000     0.000000
   39     1.000000   180.000000     1.000000     0.000000     0.000000     0.000000     0.000000     0.000000
   40    -1.000000   180.000000     1.000000     0.000000     0.000000     0.000000     0.000000     0.000000
   41     1.000000   120.000000    -0.577350     0.577350    -0.577350     0.000000     0.000000     0.000000
   42    -1.000000   120.000000    -0.577350     0.577350    -0.577350     0.000000     0.000000     0.000000
   43     1.000000   180.000000     0.707107     0.000000     0.707107     0.000000     0.000000     0.000000
   44    -1.000000   180.000000     0.707107     0.000000     0.707107     0.000000     0.000000     0.000000
   45     1.000000   180.000000     0.707107     0.707107    -0.000000     0.000000     0.000000     0.000000
   46    -1.000000   180.000000     0.707107     0.707107    -0.000000     0.000000     0.000000     0.000000
   47     1.000000   180.000000     0.000000    -0.707107     0.707107     0.000000     0.000000     0.000000
   48    -1.000000   180.000000     0.000000    -0.707107     0.707107     0.000000     0.000000     0.000000

 Subroutine IBZKPT returns following result:

 Found    104 irreducible k-points:

 Following reciprocal coordinates:
            Coordinates               Weight
  0.000000  0.000000  0.000000      1.000000
  0.071429 -0.000000 -0.000000      8.000000
  0.142857  0.000000  0.000000      8.000000
  0.214286 -0.000000 -0.000000      8.000000
  0.285714  0.000000  0.000000      8.000000
  0.357143  0.000000  0.000000      8.000000
  0.428571 -0.000000 -0.000000      8.000000
  0.500000  0.000000  0.000000      4.000000
  0.071429  0.071429 -0.000000      6.000000
  0.142857  0.071429 -0.000000     24.000000
  0.214286  0.071429  0.000000     24.000000
  0.285714  0.071429 -0.000000     24.000000
  0.357143  0.071429  0.000000     24.000000
  0.428571  0.071429  0.000000     24.000000
  0.500000  0.071429 -0.000000     24.000000
 -0.428571  0.071429 -0.000000     24.000000
 -0.357143  0.071429 -0.000000     24.000000
 -0.285714  0.071429  0.000000     24.000000
 -0.214286  0.071429 -0.000000     24.000000
 -0.142857  0.071429 -0.000000     24.000000
 -0.071429  0.071429  0.000000     12.000000
  0.142857  0.142857 -0.000000      6.000000
  0.214286  0.142857 -0.000000     24.000000
  0.285714  0.142857 -0.000000     24.000000
  0.357143  0.142857 -0.000000     24.000000
  0.428571  0.142857  0.000000     24.000000
  0.500000  0.142857 -0.000000     24.000000
 -0.428571  0.142857  0.000000     24.000000
 -0.357143  0.142857 -0.000000     24.000000
 -0.285714  0.142857  0.000000     24.000000
 -0.214286  0.142857 -0.000000     24.000000
 -0.142857  0.142857 -0.000000     12.000000
  0.214286  0.214286 -0.000000      6.000000
  0.285714  0.214286 -0.000000     24.000000
  0.357143  0.214286  0.000000     24.000000
  0.428571  0.214286  0.000000     24.000000
  0.500000  0.214286  0.000000     24.000000
 -0.428571  0.214286 -0.000000     24.000000
 -0.357143  0.214286 -0.000000     24.000000
 -0.285714  0.214286 -0.000000     24.000000
 -0.214286  0.214286  0.000000     12.000000
  0.285714  0.285714 -0.000000      6.000000
  0.357143  0.285714 -0.000000     24.000000
  0.428571  0.285714  0.000000     24.000000
  0.500000  0.285714  0.000000     24.000000
 -0.428571  0.285714 -0.000000     24.000000
 -0.357143  0.285714 -0.000000     24.000000
 -0.285714  0.285714 -0.000000     12.000000
  0.357143  0.357143 -0.000000      6.000000
  0.428571  0.357143 -0.000000     24.000000
  0.500000  0.357143 -0.000000     24.000000
 -0.428571  0.357143 -0.000000     24.000000
 -0.357143  0.357143 -0.000000     12.000000
  0.428571  0.428571 -0.000000      6.000000
  0.500000  0.428571 -0.000000     24.000000
 -0.428571  0.428571  0.000000     12.000000
  0.500000  0.500000 -0.000000      3.000000
  0.214286  0.142857  0.071429     24.000000
  0.285714  0.142857  0.071429     48.000000
  0.357143  0.142857  0.071429     48.000000
[...]
  0.500000  0.285714  0.142857     48.000000
 -0.428571  0.285714  0.142857     48.000000
 -0.357143  0.285714  0.142857     24.000000
  0.500000  0.357143  0.142857     24.000000
 -0.428571  0.357143  0.142857     48.000000
 -0.357143  0.357143  0.142857     48.000000
 -0.285714  0.357143  0.142857     48.000000
 -0.214286  0.357143  0.142857     24.000000
 -0.428571  0.428571  0.142857     24.000000
 -0.357143  0.428571  0.142857     48.000000
 -0.285714  0.428571  0.142857     24.000000
 -0.357143  0.500000  0.142857     12.000000
 -0.357143  0.428571  0.214286     24.000000
 -0.285714  0.428571  0.214286     24.000000
 -0.285714  0.500000  0.214286     12.000000

 Following cartesian coordinates:
            Coordinates               Weight
  0.000000  0.000000  0.000000      1.000000
 -0.017027 -0.017027  0.017027      8.000000
 -0.034054 -0.034054  0.034054      8.000000
 -0.051081 -0.051081  0.051081      8.000000
 -0.068108 -0.068108  0.068108      8.000000
 -0.085135 -0.085135  0.085135      8.000000
 -0.102162 -0.102162  0.102162      8.000000
[...]

 serial   3D FFT for wavefunctions
 parallel 3D FFT for charge:
    minimum data exchange during FFTs selected (reduces bandwidth)

 Broyden mixing: mesh for mixing (old mesh)
   NGX = 11   NGY = 11   NGZ = 11
  (NGX  = 48   NGY  = 48   NGZ  = 48)
  gives a total of   1331 points

 initial charge density was supplied:
 charge density of overlapping atoms calculated
 number of electron       8.0000000 magnetization
 keeping initial charge density in first step

 Maximum index for augmentation-charges         1219 (set IRDMAX)

 First call to EWALD:  gamma=   0.671
 Maximum number of real-space cells 3x 3x 3
 Maximum number of reciprocal cells 3x 3x 3

--------------------------------------- Iteration      1(   1)  ---------------------------------------

 eigenvalue-minimisations  :  1672
 total energy-change (2. order) : 0.3768781E+02  (-0.4265903E+03)
 number of electron       8.0000000 magnetization
 augmentation part        8.0000000 magnetization

 Free energy of the ion-electron system (eV)
  alpha Z        PSCENC =         8.42667662
  Ewald energy   TEWEN  =      -503.61466150
  -Hartree energ DENC   =      -370.01531932
  -exchange      EXHF   =         0.00000000
  -V(xc)+E(xc)   XCENC  =        47.94963497
  PAW double counting   =       789.73709388     -802.54577275
  entropy T*S    EENTRO =        -0.00005010
  eigenvalues    EBANDS =       -87.56004667
  atomic energy  EATOM  =       955.31025407
  Solvation  Ediel_sol  =         0.00000000
  free energy    TOTEN  =        37.68780921 eV

  energy without entropy =       37.68785930  energy(sigma->0) =       37.68783426

[...]

 eigenvalue-minimisations  :  1736
 total energy-change (2. order) :-0.3733638E+02  (-0.3648068E+02)
 number of electron       8.0000000 magnetization
 augmentation part        8.0000000 magnetization

[...]

 Broyden mixing:
  rms(total) = 0.16626E-01    rms(broyden)= 0.16513E-01
  rms(prec ) = 0.29401E-01
  weight for this iteration     100.00

[...]

 eigenvalues of (default mixing * dielectric matrix)
  average eigenvalue GAMMA=   1.5345
  1.5345

[...]

 eigenvalue-minimisations  :  1696
 total energy-change (2. order) :-0.5349324E-04  (-0.7882841E-06)
 number of electron       7.9999993 magnetization
 augmentation part        2.8583618 magnetization

[...]

--------------------------------------- Iteration      1(  13)  ---------------------------------------

 eigenvalue-minimisations  :   864
 total energy-change (2. order) : 0.1898457E-08  (-0.5404941E-13)
 number of electron       7.9999993 magnetization
 augmentation part        2.8583572 magnetization

 Free energy of the ion-electron system (eV)
  alpha Z        PSCENC =         8.42667662
  Ewald energy   TEWEN  =      -503.61466150
  -Hartree energ DENC   =      -370.20696287
  -exchange      EXHF   =         0.00000000
  -V(xc)+E(xc)   XCENC  =        47.96078873
  PAW double counting   =       790.52522155     -803.37064931
  entropy T*S    EENTRO =        -0.00000000
  eigenvalues    EBANDS =      -125.05031947
  atomic energy  EATOM  =       955.31025407
  Solvation  Ediel_sol  =         0.00000000
  free energy    TOTEN  =        -0.01965218 eV

  energy without entropy =       -0.01965218  energy(sigma->0) =       -0.01965218

 average (electrostatic) potential at core
  the test charge radii are     0.7312
  (the norm of the test charge is              1.0000)
       1-109.2237

 E-fermi :  -9.3916     XC(G=0):  -7.0927     alpha+bet : -3.4277

 k-point     1 :       0.0000    0.0000    0.0000
  band No.  band energies     occupation
      1     -33.0841      2.00000
      2      -9.4611      2.00000
      3      -9.4610      2.00000
      4      -9.4610      2.00000
      5       2.3896      0.00000
      6      21.8915      0.00000
      7      21.8915      0.00000
      8      21.8916      0.00000

[...]

 soft charge-density along one line, spin component           1
         0         1         2         3         4         5         6         7         8         9
 total charge-density along one line

------------------------ aborting loop because EDIFF is reached ----------------------------------------

  FORCE on cell =-STRESS in cart. coord.  units (eV):
  Direction    XX          YY          ZZ          XY          YZ          ZX
  Alpha Z     8.42668     8.42668     8.42668
  Ewald    -167.87156  -167.87156  -167.87156     0.00000    -0.00000    -0.00000
  Hartree   123.40232   123.40232   123.40232    -0.00000     0.00000    -0.00000
  E(xc)     -51.22535   -51.22535   -51.22535    -0.00001     0.00001    -0.00001
  Local    -156.28578  -156.28578  -156.28578     0.00006    -0.00006     0.00006
  n-local     7.49034     7.44607     7.30920    -0.11633     0.07584     0.11047
  augment    93.78201    93.78201    93.78201    -0.00009     0.00009    -0.00009
  Kinetic   142.90536   142.71342   141.57461    -0.93794     0.59617     0.88162
  Fock        0.00000     0.00000     0.00000     0.00000     0.00000     0.00000
  Total       0.04132     0.04132     0.04132     0.00000     0.00000     0.00000
  in kB       3.58705     3.58705     3.58705     0.00000     0.00000     0.00000

 VOLUME and BASIS-vectors are now :
  energy-cutoff  :      520.00
  volume of cell :       18.46
      direct lattice vectors                 reciprocal lattice vectors
    -2.097509643  0.000000000  2.097509643    -0.238377927 -0.238377927  0.238377927
     0.000000000  2.097509643  2.097509643     0.238377927  0.238377927  0.238377927
    -2.097509643  2.097509643  0.000000000    -0.238377927  0.238377927 -0.238377927

  length of vectors
     2.966326584  2.966326584  2.966326584     0.412882681  0.412882681  0.412882681

 FORCES acting on ions
    electron-ion (+dipol)            ewald-force                    non-local-force                 convergence-correction
   0.290E-13 -.432E-13 -.182E-13   0.352E-15 0.107E-15 -.454E-15   -.135E-26 -.188E-26 -.199E-26   0.154E-13 -.831E-14 -.285E-14
   0.290E-13 -.432E-13 -.182E-13   0.352E-15 0.107E-15 -.454E-15   -.135E-26 -.188E-26 -.199E-26   0.154E-13 -.831E-14 -.285E-14

 POSITION                                       TOTAL-FORCE (eV/Angst)
      0.00000      0.00000      0.00000        -0.000000      0.000000      0.000000
    total drift:                                0.000000     -0.000000     -0.000000

  FREE ENERGIE OF THE ION-ELECTRON SYSTEM (eV)
  free  energy   TOTEN  =        -0.01965218 eV

  energy  without entropy=       -0.01965218  energy(sigma->0) =       -0.01965218

 Found     1 degrees of freedom:

     directions for atom     1:  x
 Linear response reoptimize wavefunctions
 Linear response to external field (no local field effect), progress :
  Direction:   1
  LATTYP: Found a face centered cubic cell.
 ALAT       =     4.1950192856

[...]

The dynamic configuration has the point symmetry C_4v.

[...]

----------------------------------------- Iteration    1(   1)  ---------------------------------------

 Free energy of the ion-electron system (eV)
  -Hartree energ DENC   =         0.00000000
  -V(xc)+E(xc)   XCENC  =         0.00000000
  PAW double counting   =         0.00000000        0.00000000
  entropy T*S    EENTRO =         0.00000000
  eigenvalues    EBANDS =        -0.01833658
  free energy    TOTEN  =        -0.01833658 eV

  energy without entropy =       -0.01833658

[...]

 change of polarisation eV/A/(eV/A) component  1 :     0.036    -0.004     0.004
 dielectric tensor                  component  1 :     1.357    -0.044     0.040

 Linear response to external field (no local field effect), progress :
  Direction:   2
  LATTYP: Found a face centered cubic cell.
 ALAT       =     4.1950192856

[...]

 Linear response to external field (no local field effect), progress :
  Direction:   3
  LATTYP: Found a face centered cubic cell.
 ALAT       =     4.1950192856

[...]

 HEAD OF MICROSCOPIC STATIC DIELECTRIC TENSOR (INDEPENDENT PARTICLE, excluding Hartree and local field effects)
           1.335560    -0.000000     0.000000
          -0.000000     1.335560    -0.000000
           0.000000    -0.000000     1.335560

 Linear response to external field, progress :
  Direction:   1
  LATTYP: Found a face centered cubic cell.
 ALAT       =     4.1950192856

[...]

 PIEZOELECTRIC TENSOR FIELD DIRECTION 1  (e Angst)
     0.00001 -0.00000  0.00000           ( -0.00000  0.00000 -0.00000)
    -0.00000  0.00001  0.00000           (  0.00000 -0.00000  0.00000)
    -0.00000  0.00000  0.00001           ( -0.00000  0.00000 -0.00000)

 PIEZOELECTRIC TENSOR FIELD DIRECTION 1  (C/m^2)
     0.00001 -0.00000  0.00000
    -0.00000  0.00001  0.00000
    -0.00000  0.00000  0.00001

      POSITION         DIRECTION 1           BORN EFFECTIVE CHARGE    (rigid.aug.   ionic)
      0.00000      0.00000      0.00000    -0.00002 -0.00000  0.00000 ( -2.85836  8.00000)
    total drift (improves with k-points):  -0.00002 -0.00000  0.00000

[...]

 Linear response to external field, progress :
  Direction:   3
  LATTYP: Found a face centered cubic cell.
 ALAT       =     4.1950192856

[...]

 change of polarisation eV/A/(eV/A) component  3 :     0.004     0.003     0.033
 dielectric tensor                  component  3 :     0.039     0.034     1.322

 PIEZOELECTRIC TENSOR FIELD DIRECTION 3  (e Angst)
    -0.00001 -0.00000 -0.00000           (  0.00000 -0.00000  0.00000)
    -0.00000 -0.00001 -0.00000           ( -0.00000  0.00000 -0.00000)
     0.00000  0.00000 -0.00001           (  0.00000 -0.00000  0.00000)

 PIEZOELECTRIC TENSOR FIELD DIRECTION 3  (C/m^2)
    -0.00001 -0.00000 -0.00000
    -0.00000 -0.00001 -0.00000
     0.00000  0.00000 -0.00001

      POSITION         DIRECTION 3           BORN EFFECTIVE CHARGE    (rigid.aug.   ionic)
      0.00000      0.00000      0.00000    -0.00000 -0.00000 -0.00002 ( -2.85836  8.00000)
    total drift (improves with k-points):  -0.00000 -0.00000 -0.00002

[...]

 MACROSCOPIC STATIC DIELECTRIC TENSOR (including local field effects in DFT)
           1.321511    -0.000000     0.000000
          -0.000000     1.321511    -0.000000
           0.000000    -0.000000     1.321511

 Linear response:
   Degrees of freedom DOF   =            1
 Linear response progress:
  Degree of freedom:   1/  1
  LATTYP: Found a face centered cubic cell.
 ALAT       =     4.1950192856

[...]

The dynamic configuration has the point symmetry C_4v.

[...]

----------------------------------------- Iteration    4(   6)  ---------------------------------------

 Broyden mixing:
  rms(total) = 0.10564E-03    rms(broyden)= 0.10119E-03
  rms(prec ) = 0.27418E-03
  weight for this iteration     100.00

 eigenvalues of (default mixing * dielectric matrix)
  average eigenvalue GAMMA=   1.8324
  0.9880  2.5110  2.3176  1.5132

 Free energy of the ion-electron system (eV)
  -Hartree energ DENC   =        -0.17720322
  -V(xc)+E(xc)   XCENC  =         0.00023269
  PAW double counting   =         0.00000000       -0.00000000
  entropy T*S    EENTRO =         0.00000000
  eigenvalues    EBANDS =        -0.37376588
  free energy    TOTEN  =        -0.55073641 eV

  energy without entropy =       -0.55073641

[...]

 k-point 244 :       0.5000   -0.0000    0.5000
  band No.  band energies     occupation
      1      -0.0002      0.00000
      2      -0.0002      0.00000
      3      -0.0002      0.00000
      4      -0.0002      0.00000
      5       0.0000      0.00000
      6      -0.0001      0.00000
      7      -0.0000      0.00000
      8      -0.0000      0.00000

------------------------ aborting loop because EDIFF is reached ----------------------------------------

 INTERNAL STRAIN TENSOR  FOR ION    1  DIRECTION 1   (eV/Angst):
    -0.00038  0.00000  0.00000
    -0.00000 -0.00063  0.00000
     0.00000 -0.00000 -0.00063

 POSITION                   FORCE-CONSTANT FOR ION    1 DIRECTION 1 (eV/Angst/Angst)
      0.00000      0.00000      0.00000         0.112927      0.000000     -0.000000
    total drift:                                0.112927      0.000000     -0.000000

 BORN EFFECTIVE CHARGE FOR ION    1 DIRECTION 1 :  -0.000   0.000  -0.000
                   rigid augmentation           :  -2.858  -0.000   0.000
                   ionic contribution           :   8.000  -0.000   0.000
                   Berry contribution           :  -5.142   0.000  -0.000

  LATTYP: Found a face centered cubic cell.
 ALAT       =     4.1950192856

  Lattice vectors:

 A1 = (  -2.0975096428,   0.0000000000,   2.0975096428)
 A2 = (   0.0000000000,   2.0975096428,   2.0975096428)
 A3 = (  -2.0975096428,   2.0975096428,   0.0000000000)

Analysis of symmetry for initial positions (statically):
 Subroutine PRICEL returns:
 Original cell was already a primitive cell.

[...]

The static configuration has the point symmetry O_h .

Analysis of symmetry for dynamics (positions and initial velocities):
 Subroutine PRICEL returns:
 Original cell was already a primitive cell.

 Routine SETGRP: Setting up the symmetry group for a
 face centered cubic supercell.

 Subroutine GETGRP returns: Found 48 space group operations
 (whereof 48 operations were pure point group operations)
 out of a pool of 48 trial point group operations.

The dynamic configuration has the point symmetry O_h .

 Subroutine INISYM returns: Found 48 space group operations
 (whereof 48 operations are pure point group operations),
 and found     1 'primitive' translations

 MACROSCOPIC STATIC DIELECTRIC TENSOR (including local field effects in DFT)
           1.321511    -0.000000     0.000000
          -0.000000     1.321511    -0.000000
           0.000000    -0.000000     1.321511

 PIEZOELECTRIC TENSOR  for field in x, y, z        (e  Angst)
          XX          YY          ZZ          XY          YZ          ZX
  x     0.00001     0.00001     0.00001    -0.00000     0.00000     0.00000
  y    -0.00001    -0.00001    -0.00001     0.00000     0.00000     0.00000
  z    -0.00001    -0.00001    -0.00001    -0.00000     0.00000    -0.00000

 PIEZOELECTRIC TENSOR  for field in x, y, z        (C/m^2)
          XX          YY          ZZ          XY          YZ          ZX
  x     0.00000     0.00000     0.00000     0.00000     0.00000     0.00000
  y     0.00000     0.00000     0.00000     0.00000     0.00000     0.00000
  z     0.00000     0.00000     0.00000     0.00000     0.00000     0.00000

 BORN EFFECTIVE CHARGES (in e, cummulative output)
 ion    1
    1     0.00000     0.00000     0.00000
    2     0.00000     0.00000     0.00000
    3     0.00000     0.00000     0.00000

 INTERNAL STRAIN TENSOR FOR ION    1 for displacements in x,y,z  (eV/Angst):
          X           Y           Z          XY          YZ          ZX
  x     0.00000     0.00000     0.00000     0.00000     0.00000     0.00000
  y     0.00000     0.00000     0.00000     0.00000     0.00000     0.00000
  z     0.00000     0.00000     0.00000     0.00000     0.00000     0.00000

 SECOND DERIVATIVES (NOT SYMMETRIZED)
               1X          1Y          1Z
  1X     0.112927   -0.000000    0.000000
  1Y    -0.000000    0.112927   -0.000000
  1Z     0.000000   -0.000000    0.112927

 Eigenvectors and eigenvalues of the dynamical matrix

   1 f/i=    1.169470 THz     7.347997 2PiTHz   39.009320 cm-1     4.836541 meV
             X         Y         Z           dx          dy          dz
      0.000000  0.000000  0.000000     0.894427    0.447214    0.000000

[...]

   3 f/i=    1.169470 THz     7.347997 2PiTHz   39.009320 cm-1     4.836541 meV
             X         Y         Z           dx          dy          dz
      0.000000  0.000000  0.000000     0.000000    0.000000    1.000000

 MACROSCOPIC STATIC DIELECTRIC TENSOR IONIC CONTRIBUTION
           0.000000     0.000000     0.000000
           0.000000     0.000000     0.000000
           0.000000     0.000000     0.000000

 ELASTIC MODULI IONIC CONTR (kBar)
 Direction    XX          YY          ZZ          XY          YZ          ZX
 XX           0.0000      0.0000      0.0000      0.0000      0.0000      0.0000
 YY           0.0000      0.0000      0.0000      0.0000      0.0000      0.0000
 ZZ           0.0000      0.0000      0.0000      0.0000      0.0000      0.0000
 XY           0.0000      0.0000      0.0000      0.0000      0.0000      0.0000
 YZ           0.0000      0.0000      0.0000      0.0000      0.0000      0.0000
 ZX           0.0000      0.0000      0.0000      0.0000      0.0000      0.0000

 PIEZOELECTRIC TENSOR IONIC CONTR  for field in x, y, z        (C/m^2)
          XX          YY          ZZ          XY          YZ          ZX
  x     0.00000     0.00000     0.00000     0.00000     0.00000     0.00000
  y     0.00000     0.00000     0.00000     0.00000     0.00000     0.00000
  z     0.00000     0.00000     0.00000     0.00000     0.00000     0.00000