 vasp.5.4.4.18Apr17-6-g9f103f2a35 (build Aug 24 2017 11:22:49) complex

 executed on             LinuxIFC date 2023.12.25  13:07:35

 INCAR:
 POTCAR:    PAW_PBE Na_pv 19Sep2006
 POTCAR:    PAW_PBE Cl 06Sep2000

 POTCAR:    PAW_PBE Na_pv 19Sep2006
   VRHFIN =Na: p6s1

   TITEL  = PAW_PBE Na_pv 19Sep2006
   POMASS =   22.990; ZVAL   =    7.000    mass and valenz
   ENMAX  =  259.561; ENMIN  =  194.671 eV

 POTCAR:    PAW_PBE Cl 06Sep2000
   VRHFIN =Cl: s2p5

   TITEL  = PAW_PBE Cl 06Sep2000
   POMASS =   35.453; ZVAL   =    7.000    mass and valenz
   ENMAX  =  262.472; ENMIN  =  196.854 eV

  PAW_PBE Na_pv 19Sep2006               :
  PAW_PBE Cl 06Sep2000                  :

 POSCAR: Na1 Cl1
  positions in direct lattice
 exchange correlation table for  LEXCH =        8
   RHO(1)=    0.500       N(1)  =     2000
   RHO(2)=  100.500       N(2)  =     4000

 ion  position               nearest neighbor table
   1  0.000  0.000  0.000-
   2  0.500  0.500  0.500-

  LATTYP: Found a face centered cubic cell.
 ALAT       =     5.5881260062

  Lattice vectors:

 A1 = (  -2.7940630031,   0.0000000000,   2.7940630031)
 A2 = (   0.0000000000,   2.7940630031,   2.7940630031)
 A3 = (  -2.7940630031,   2.7940630031,   0.0000000000)

Analysis of symmetry for initial positions (statically):
 Subroutine PRICEL returns:
 Original cell was already a primitive cell.

 Routine SETGRP: Setting up the symmetry group for a
 face centered cubic supercell.

 Subroutine GETGRP returns: Found  8 space group operations
 (whereof  8 operations were pure point group operations)
 out of a pool of 48 trial point group operations.

The static configuration has the point symmetry C_4v.

Analysis of symmetry for dynamics (positions and initial velocities):
 Subroutine PRICEL returns:
 Original cell was already a primitive cell.

[...]

The dynamic configuration has the point symmetry C_4v.

 Subroutine INISYM returns: Found  8 space group operations
 (whereof  8 operations are pure point group operations),
 and found     1 'primitive' translations

 KPOINTS: pymatgen with grid density = 3000 / numb

Automatic generation of k-mesh.
Space group operators:
 irot       det(A)        alpha          n_x          n_y          n_z        tau_x        tau_y        tau_z
    1     1.000000     0.000001     1.000000     0.000000     0.000000     0.000000     0.000000     0.000000
    2     1.000000    90.000000    -1.000000     0.000000    -0.000000     0.000000     0.000000     0.000000
    3    -1.000000   180.000000    -0.000000     0.000000     1.000000     0.000000     0.000000     0.000000
    4    -1.000000   180.000000    -0.000000     0.707107     0.707107     0.000000     0.000000     0.000000
    5    -1.000000   180.000000    -0.000000     1.000000     0.000000     0.000000     0.000000     0.000000
    6     1.000000    90.000000     1.000000     0.000000     0.000000     0.000000     0.000000     0.000000
    7     1.000000   180.000000     1.000000     0.000000     0.000000     0.000000     0.000000     0.000000
    8    -1.000000   180.000000    -0.000000    -0.707107     0.707107     0.000000     0.000000     0.000000

 Subroutine IBZKPT returns following result:

 Found    163 irreducible k-points:

 Following reciprocal coordinates:
            Coordinates               Weight
  0.000000  0.000000  0.000000      1.000000
  0.083333 -0.000000 -0.000000      8.000000
  0.166667  0.000000 -0.000000      8.000000
  0.250000 -0.000000 -0.000000      8.000000
  0.333333 -0.000000 -0.000000      8.000000
  0.416667 -0.000000 -0.000000      8.000000
  0.500000 -0.000000 -0.000000      4.000000
  0.083333  0.083333 -0.000000      4.000000
  0.166667  0.083333 -0.000000     16.000000
  0.250000  0.083333 -0.000000     16.000000
  0.333333  0.083333 -0.000000     16.000000
  0.416667  0.083333 -0.000000     16.000000
  0.500000  0.083333 -0.000000     16.000000
 -0.416667  0.083333  0.000000     16.000000
 -0.333333  0.083333  0.000000     16.000000
 -0.250000  0.083333  0.000000     16.000000
 -0.166667  0.083333  0.000000     16.000000
 -0.083333  0.083333 -0.000000      8.000000
  0.166667  0.166667 -0.000000      4.000000
  0.250000  0.166667 -0.000000     16.000000
  0.333333  0.166667 -0.000000     16.000000
  0.416667  0.166667 -0.000000     16.000000
  0.500000  0.166667 -0.000000     16.000000
 -0.416667  0.166667 -0.000000     16.000000
 -0.333333  0.166667 -0.000000     16.000000
 -0.250000  0.166667  0.000000     16.000000
 -0.166667  0.166667 -0.000000      8.000000
  0.250000  0.250000 -0.000000      4.000000
  0.333333  0.250000 -0.000000     16.000000
  0.416667  0.250000 -0.000000     16.000000
  0.500000  0.250000 -0.000000     16.000000
 -0.416667  0.250000 -0.000000     16.000000
 -0.333333  0.250000 -0.000000     16.000000
 -0.250000  0.250000  0.000000      8.000000
  0.333333  0.333333 -0.000000      4.000000
  0.416667  0.333333 -0.000000     16.000000
  0.500000  0.333333 -0.000000     16.000000
 -0.416667  0.333333  0.000000     16.000000
 -0.333333  0.333333  0.000000      8.000000
  0.416667  0.416667 -0.000000      4.000000
  0.500000  0.416667 -0.000000     16.000000
 -0.416667  0.416667  0.000000      8.000000
  0.500000  0.500000 -0.000000      2.000000
  0.083333 -0.000000  0.083333      2.000000
  0.166667  0.000000  0.083333      8.000000
  0.250000  0.000000  0.083333      8.000000
  0.333333  0.000000  0.083333      8.000000
  0.416667  0.000000  0.083333      8.000000
  0.500000 -0.000000  0.083333      8.000000
 -0.416667  0.000000  0.083333      8.000000
 -0.333333 -0.000000  0.083333      8.000000
 -0.250000  0.000000  0.083333      8.000000
 -0.166667  0.000000  0.083333      8.000000
 -0.083333  0.000000  0.083333      4.000000
  0.250000  0.166667  0.083333      8.000000
  0.333333  0.166667  0.083333     16.000000
  0.416667  0.166667  0.083333     16.000000
  0.500000  0.166667  0.083333     16.000000
 -0.416667  0.166667  0.083333      8.000000
  0.166667  0.250000  0.083333      8.000000
[...]
  0.333333 -0.083333  0.250000      8.000000
  0.333333 -0.000000  0.333333      2.000000
  0.416667 -0.000000  0.333333      8.000000
  0.500000  0.000000  0.333333      8.000000
 -0.416667  0.000000  0.333333      8.000000
 -0.333333  0.000000  0.333333      4.000000
  0.416667 -0.250000  0.333333      8.000000
  0.416667 -0.166667  0.333333     16.000000
  0.500000 -0.166667  0.333333      4.000000
  0.416667 -0.083333  0.333333      8.000000
  0.416667 -0.000000  0.416667      2.000000
  0.500000 -0.000000  0.416667      8.000000
 -0.416667  0.000000  0.416667      4.000000
  0.500000 -0.083333  0.416667      4.000000
  0.500000 -0.000000  0.500000      1.000000

 Following cartesian coordinates:
            Coordinates               Weight
  0.000000  0.000000  0.000000      1.000000
 -0.014913 -0.014913  0.014913      8.000000
 -0.029825 -0.029825  0.029825      8.000000
 -0.044738 -0.044738  0.044738      8.000000
 -0.059650 -0.059650  0.059650      8.000000
 -0.074563 -0.074563  0.074563      8.000000
 -0.089475 -0.089475  0.089475      4.000000
  0.000000  0.000000  0.029825      4.000000
 -0.014913 -0.014913  0.044738     16.000000
 -0.029825 -0.029825  0.059650     16.000000
 -0.044738 -0.044738  0.074563     16.000000
 -0.059650 -0.059650  0.089475     16.000000
 -0.074563 -0.074563  0.104388     16.000000
  0.089475  0.089475 -0.059650     16.000000
  0.074563  0.074563 -0.044738     16.000000
  0.059650  0.059650 -0.029825     16.000000
  0.044738  0.044738 -0.014913     16.000000
  0.029825  0.029825 -0.000000      8.000000
  0.000000  0.000000  0.059650      4.000000
 -0.014913 -0.014913  0.074563     16.000000
 -0.029825 -0.029825  0.089475     16.000000
 -0.044738 -0.044738  0.104388     16.000000
 -0.059650 -0.059650  0.119301     16.000000
  0.104388  0.104388 -0.044738     16.000000
  0.089475  0.089475 -0.029825     16.000000
  0.074563  0.074563 -0.014913     16.000000
  0.059650  0.059650  0.000000      8.000000
  0.000000  0.000000  0.089475      4.000000
 -0.014913 -0.014913  0.104388     16.000000
 -0.029825 -0.029825  0.119301     16.000000
 -0.044738 -0.044738  0.134213     16.000000
  0.119301  0.119301 -0.029825     16.000000
  0.104388  0.104388 -0.014913     16.000000
  0.089475  0.089475  0.000000      8.000000
  0.000000  0.000000  0.119301      4.000000
 -0.014913 -0.014913  0.134213     16.000000
 -0.029825 -0.029825  0.149126     16.000000
  0.134213  0.134213 -0.014913     16.000000
  0.119301  0.119301  0.000000      8.000000
 -0.000000 -0.000000  0.149126      4.000000
 -0.014913 -0.014913  0.164038     16.000000
  0.149126  0.149126 -0.000000      8.000000
  0.000000  0.000000  0.178951      2.000000
 -0.029825 -0.000000  0.000000      2.000000
 -0.044738 -0.014913  0.014913      8.000000
 -0.059650 -0.029825  0.029825      8.000000
 -0.074563 -0.044738  0.044738      8.000000
 -0.089475 -0.059650  0.059650      8.000000
 -0.104388 -0.074563  0.074563      8.000000
  0.059650  0.089475 -0.089475      8.000000
  0.044738  0.074563 -0.074563      8.000000
  0.029825  0.059650 -0.059650      8.000000
  0.014913  0.044738 -0.044738      8.000000
  0.000000  0.029825 -0.029825      4.000000
 -0.029825 -0.000000  0.059650      8.000000
 -0.044738 -0.014913  0.074563     16.000000
 -0.059650 -0.029825  0.089475     16.000000
 -0.074563 -0.044738  0.104388     16.000000
  0.089475  0.119301 -0.059650      8.000000
  0.000000  0.029825  0.059650      8.000000
[...]
 -0.119301 -0.029825 -0.000000      8.000000
 -0.119301  0.000000  0.000000      2.000000
 -0.134213 -0.014913  0.014913      8.000000
 -0.149126 -0.029825  0.029825      8.000000
  0.014913  0.134213 -0.134213      8.000000
  0.000000  0.119301 -0.119301      4.000000
 -0.178951 -0.059650 -0.029825      8.000000
 -0.164038 -0.044738 -0.014913     16.000000
 -0.178951 -0.059650  0.000000      4.000000
 -0.149126 -0.029825  0.000000      8.000000
 -0.149126  0.000000  0.000000      2.000000
 -0.164038 -0.014913  0.014913      8.000000
 -0.000000  0.149126 -0.149126      4.000000
 -0.178951 -0.029825  0.000000      4.000000
 -0.178951  0.000000  0.000000      1.000000

 Subroutine IBZKPT_HF returns following result:

 Found   1728 k-points in 1st BZ
 the following   1728 k-points will be used (e.g. in the exchange kernel)
 Following reciprocal coordinates:   # in IRBZ
  0.000000  0.000000  0.000000    0.00057870   1 t-inv F
  0.083333 -0.000000 -0.000000    0.00057870   2 t-inv F
  0.166667  0.000000 -0.000000    0.00057870   3 t-inv F
  0.250000 -0.000000 -0.000000    0.00057870   4 t-inv F
  0.333333 -0.000000 -0.000000    0.00057870   5 t-inv F
  0.416667 -0.000000 -0.000000    0.00057870   6 t-inv F
  0.500000 -0.000000 -0.000000    0.00057870   7 t-inv F
  0.083333  0.083333 -0.000000    0.00057870   8 t-inv F
  0.166667  0.083333 -0.000000    0.00057870   9 t-inv F
  0.250000  0.083333 -0.000000    0.00057870  10 t-inv F
  0.333333  0.083333 -0.000000    0.00057870  11 t-inv F
  0.416667  0.083333 -0.000000    0.00057870  12 t-inv F
  0.500000  0.083333 -0.000000    0.00057870  13 t-inv F
 -0.416667  0.083333  0.000000    0.00057870  14 t-inv F
[...]
      9      10.5798      0.00000
     10      10.5798      0.00000
     11      10.5798      0.00000
     12      12.7768      0.00000
     13      12.7768      0.00000
     14      14.4305      0.00000
     15      16.8086      0.00000
     16      16.8086      0.00000

[...]

 soft charge-density along one line, spin component           1
         0         1         2         3         4         5         6         7         8         9
 total charge-density along one line

------------------------ aborting loop because EDIFF is reached ----------------------------------------

  FORCE on cell =-STRESS in cart. coord.  units (eV):
  Direction    XX          YY          ZZ          XY          YZ          ZX
  Alpha Z    23.66058    23.66058    23.66058
  Ewald    -238.83596  -238.83596  -238.83596    -0.00000    -0.00000    -0.00000
  Hartree    94.56650    94.56650    94.56650    -0.00000     0.00000    -0.00000
  E(xc)     -64.42288   -64.42288   -64.42288    -0.00001     0.00001    -0.00001
  Local     -63.20380   -63.20380   -63.20380     0.00004    -0.00004     0.00004
  n-local    59.81990    60.26607    59.37374    -1.06194     0.13758     0.42554
  augment    22.51181    22.51181    22.51181    -0.00005     0.00005    -0.00005
  Kinetic   166.31723   167.48133   165.15313    -2.77642     0.36765     1.06285
  Fock        0.00000     0.00000     0.00000     0.00000     0.00000     0.00000
  Total       0.41338     0.41338     0.41338     0.00000    -0.00000     0.00000
  in kB      15.18189    15.18188    15.18188     0.00000    -0.00000     0.00000

 VOLUME and BASIS-vectors are now :
  energy-cutoff  :      520.00
  volume of cell :       43.63
      direct lattice vectors                 reciprocal lattice vectors
    -2.794063003  0.000000000  2.794063003    -0.178950868 -0.178950868  0.178950868
     0.000000000  2.794063003  2.794063003     0.178950868  0.178950868  0.178950868
    -2.794063003  2.794063003  0.000000000    -0.178950868  0.178950868 -0.178950868

  length of vectors
     3.951401793  3.951401793  3.951401793     0.309951996  0.309951996  0.309951996

 FORCES acting on ions
    electron-ion (+dipol)            ewald-force                    non-local-force                 convergence-correction
   -.161E-04 -.121E-11 -.116E-11   0.145E-04 -.740E-14 -.244E-15   0.580E-06 -.119E-23 -.262E-23   0.130E-05 -.633E-11 -.632E-11
   0.145E-04 0.621E-11 0.719E-11   -.145E-04 0.732E-14 -.371E-15   -.227E-06 -.966E-23 -.314E-23   -.109E-06 -.420E-10 -.421E-10
   -.155E-05 0.501E-11 0.602E-11   0.550E-16 -.890E-16 -.616E-15   0.353E-06 -.108E-22 -.576E-23   0.119E-05 -.484E-10 -.484E-10

 POSITION                                       TOTAL-FORCE (eV/Angst)
      0.00000      0.00000      0.00000         0.000000      0.000000     -0.000000
     -2.79406      2.79406      2.79406        -0.000000     -0.000000      0.000000
    total drift:                               -0.000000     -0.000000     -0.000000

  FREE ENERGIE OF THE ION-ELECTRON SYSTEM (eV)
  free  energy   TOTEN  =        -6.76581698 eV

  energy  without entropy=       -6.76581698  energy(sigma->0) =       -6.76581698

 Found     4 degrees of freedom:

     directions for atom     1:  y
     directions for atom     2:  y
 Linear response reoptimize wavefunctions
 Linear response to external field (no local field effect), progress :
  Direction:   1
  LATTYP: Found a face centered cubic cell.
 ALAT       =     5.5881260062

[...]

----------------------------------------- Iteration    1(   1)  ---------------------------------------

 Free energy of the ion-electron system (eV)
  -Hartree energ DENC   =         0.00000000
  -V(xc)+E(xc)   XCENC  =         0.00000000
  PAW double counting   =         0.00000000        0.00000000
  entropy T*S    EENTRO =         0.00000000
  eigenvalues    EBANDS =        -0.18851836
  free energy    TOTEN  =        -0.18851836 eV

  energy without entropy =       -0.18851836

[...]

 change of polarisation eV/A/(eV/A) component  1 :     0.428    -0.086     0.031
 dielectric tensor                  component  1 :     2.775    -0.358     0.127

 Linear response to external field (no local field effect), progress :
  Direction:   2
  LATTYP: Found a face centered cubic cell.
 ALAT       =     5.5881260062

[...]

The dynamic configuration has the point symmetry C_1h.

[...]

 Linear response to external field (no local field effect), progress :
  Direction:   3
  LATTYP: Found a face centered cubic cell.
 ALAT       =     5.5881260062

[...]

 HEAD OF MICROSCOPIC STATIC DIELECTRIC TENSOR (INDEPENDENT PARTICLE, excluding Hartree and local field effects)
           2.774953    -0.000000     0.000000
          -0.000000     2.774949    -0.000000
           0.000000    -0.000000     2.774949

 Linear response to external field, progress :
  Direction:   1
  LATTYP: Found a face centered cubic cell.
 ALAT       =     5.5881260062

[...]

 PIEZOELECTRIC TENSOR FIELD DIRECTION 1  (e Angst)
     0.00002 -0.00000 -0.00000           ( -0.00000  0.00000  0.00000)
     0.00000  0.00006 -0.00000           (  0.00000  0.00000 -0.00000)
     0.00000 -0.00000  0.00006           (  0.00000 -0.00000  0.00000)

 PIEZOELECTRIC TENSOR FIELD DIRECTION 1  (C/m^2)
     0.00001 -0.00000 -0.00000
     0.00000  0.00002 -0.00000
     0.00000 -0.00000  0.00002

      POSITION         DIRECTION 1           BORN EFFECTIVE CHARGE    (rigid.aug.   ionic)
      0.00000      0.00000      0.00000     1.08916  0.00000 -0.00000 ( -4.47732  7.00000)
     -2.79406      2.79406      2.79406    -1.08919 -0.00000  0.00000 (  0.94331  7.00000)
    total drift (improves with k-points):  -0.00003 -0.00000  0.00000

[...]

 Linear response to external field, progress :
  Direction:   3
  LATTYP: Found a face centered cubic cell.
 ALAT       =     5.5881260062

[...]

 change of polarisation eV/A/(eV/A) component  3 :    -0.000     0.002     0.368
 dielectric tensor                  component  3 :    -0.000     0.008     2.525

 PIEZOELECTRIC TENSOR FIELD DIRECTION 3  (e Angst)
    -0.00001 -0.00000 -0.00003           ( -0.00000 -0.00000  0.00000)
    -0.00000 -0.00003  0.00000           ( -0.00000 -0.00000  0.00000)
    -0.00003  0.00000 -0.00000           (  0.00000  0.00000 -0.00000)

 PIEZOELECTRIC TENSOR FIELD DIRECTION 3  (C/m^2)
    -0.00000 -0.00000 -0.00001
    -0.00000 -0.00001  0.00000
    -0.00001  0.00000 -0.00000

      POSITION         DIRECTION 3           BORN EFFECTIVE CHARGE    (rigid.aug.   ionic)
      0.00000      0.00000      0.00000    -0.00008 -0.00000  1.08916 ( -4.47732  7.00000)
     -2.79406      2.79406      2.79406     0.00001  0.00000 -1.08920 (  0.94331  7.00000)
    total drift (improves with k-points):  -0.00007 -0.00000 -0.00004

[...]

 MACROSCOPIC STATIC DIELECTRIC TENSOR (including local field effects in DFT)
           2.524899    -0.000000     0.000000
          -0.000000     2.524889    -0.000000
           0.000000    -0.000000     2.524889

 Linear response:
   Degrees of freedom DOF   =            4
 Linear response progress:
  Degree of freedom:   1/  4
  LATTYP: Found a face centered cubic cell.
 ALAT       =     5.5881260062

[...]

 INTERNAL STRAIN TENSOR  FOR ION    1  DIRECTION 1   (eV/Angst):
     0.00171  0.00000  0.00000
    -0.00000 -0.00084  0.00000
     0.00000 -0.00000 -0.00084

 POSITION                   FORCE-CONSTANT FOR ION    1 DIRECTION 1 (eV/Angst/Angst)
      0.00000      0.00000      0.00000        -1.595702     -0.000000     -0.000000
     -2.79406      2.79406      2.79406         1.595702      0.000000      0.000000
    total drift:                                0.000000      0.000000      0.000000

 BORN EFFECTIVE CHARGE FOR ION    1 DIRECTION 1 :   1.089  -0.000   0.000
                   rigid augmentation           :  -4.477  -0.000   0.000
                   ionic contribution           :   7.000  -0.000   0.000
                   Berry contribution           :  -1.434   0.000  -0.000

 Linear response progress:
  Degree of freedom:   2/  4
  LATTYP: Found a face centered cubic cell.
 ALAT       =     5.5881260062

[...]

 Linear response progress:
  Degree of freedom:   4/  4
  LATTYP: Found a face centered cubic cell.
 ALAT       =     5.5881260062

[...]

The dynamic configuration has the point symmetry C_1h.

[...]

----------------------------------------- Iteration    8(  12)  ---------------------------------------

 Broyden mixing:
  rms(total) = 0.32372E-05    rms(broyden)= 0.32368E-05
  rms(prec ) = 0.46022E-05
  weight for this iteration     100.00

 eigenvalues of (default mixing * dielectric matrix)
  average eigenvalue GAMMA=   1.8454
  3.0616  2.5988  2.5988  2.5849  2.0501  1.3090  1.2727  1.0347  0.9916  0.9522

 Free energy of the ion-electron system (eV)
  -Hartree energ DENC   =        -0.10277953
  -V(xc)+E(xc)   XCENC  =         0.00038067
  PAW double counting   =         0.00002502       -0.00002525
  entropy T*S    EENTRO =        -0.00000000
  eigenvalues    EBANDS =        -0.09229550
  free energy    TOTEN  =        -0.19469459 eV

  energy without entropy =       -0.19469459

[...]

 k-point 476 :      -0.0000   -0.5000   -0.5000
  band No.  band energies     occupation
      1      -0.0001      0.00000
      2      -0.0001      0.00000
      3      -0.0001      0.00000
      4       0.0002      0.00000
      5       0.0002      0.00000
      6       0.0002      0.00000
      7       0.0002      0.00000
      8       0.0000      0.00000
      9       0.0000      0.00000
     10       0.0002      0.00000
     11       0.0001      0.00000
     12       0.0001      0.00000
     13       0.0001      0.00000
     14       0.0001      0.00000
     15       0.0001      0.00000
     16       0.0001      0.00000

------------------------ aborting loop because EDIFF is reached ----------------------------------------

 INTERNAL STRAIN TENSOR  FOR ION    2  DIRECTION 2   (eV/Angst):
     0.00114  0.00076  0.00000
     0.00076  0.00111  0.00000
     0.00000  0.00000 -0.00010

 POSITION                   FORCE-CONSTANT FOR ION    2 DIRECTION 2 (eV/Angst/Angst)
      0.00000      0.00000      0.00000         0.000014      1.581187      0.000000
     -2.79406      2.79406      2.79406        -0.000014     -1.581187     -0.000000
    total drift:                               -0.000000      0.000000      0.000000

 BORN EFFECTIVE CHARGE FOR ION    2 DIRECTION 2 :  -0.000  -1.089   0.000
                   rigid augmentation           :  -0.000   0.943  -0.000
                   ionic contribution           :  -0.000   7.000  -0.000
                   Berry contribution           :  -0.000  -9.032   0.000

  LATTYP: Found a face centered cubic cell.
 ALAT       =     5.5881260062

  Lattice vectors:

 A1 = (  -2.7940630031,   0.0000000000,   2.7940630031)
 A2 = (   0.0000000000,   2.7940630031,   2.7940630031)
 A3 = (  -2.7940630031,   2.7940630031,   0.0000000000)

Analysis of symmetry for initial positions (statically):
 Subroutine PRICEL returns:
 Original cell was already a primitive cell.

[...]

The static configuration has the point symmetry C_4v.

Analysis of symmetry for dynamics (positions and initial velocities):
 Subroutine PRICEL returns:
 Original cell was already a primitive cell.

 Routine SETGRP: Setting up the symmetry group for a
 face centered cubic supercell.

 Subroutine GETGRP returns: Found  8 space group operations
 (whereof  8 operations were pure point group operations)
 out of a pool of 48 trial point group operations.

The dynamic configuration has the point symmetry C_4v.

 Subroutine INISYM returns: Found  8 space group operations
 (whereof  8 operations are pure point group operations),
 and found     1 'primitive' translations

 MACROSCOPIC STATIC DIELECTRIC TENSOR (including local field effects in DFT)
           2.524899    -0.000000     0.000000
          -0.000000     2.524889    -0.000000
           0.000000    -0.000000     2.524889

 PIEZOELECTRIC TENSOR  for field in x, y, z        (e  Angst)
          XX          YY          ZZ          XY          YZ          ZX
  x     0.00002     0.00006     0.00006     0.00000    -0.00000    -0.00000
  y    -0.00008     0.00000    -0.00005     0.00006     0.00000    -0.00000
  z    -0.00001    -0.00003    -0.00000    -0.00000     0.00000    -0.00003

 PIEZOELECTRIC TENSOR  for field in x, y, z        (C/m^2)
          XX          YY          ZZ          XY          YZ          ZX
  x     0.00001     0.00002     0.00002    -0.00000    -0.00000     0.00000
  y     0.00000    -0.00000    -0.00000     0.00001     0.00000    -0.00000
  z     0.00000     0.00000     0.00000    -0.00000    -0.00000     0.00001

 BORN EFFECTIVE CHARGES (in e, cummulative output)
 ion    1
    1     1.08918     0.00000    -0.00000
    2     0.00003     1.08918     0.00000
    3    -0.00004    -0.00000     1.08918
 ion    2
    1    -1.08918    -0.00000     0.00000
    2    -0.00003    -1.08918    -0.00000
    3     0.00004     0.00000    -1.08918

 INTERNAL STRAIN TENSOR FOR ION    1 for displacements in x,y,z  (eV/Angst):
          X           Y           Z          XY          YZ          ZX
  x     0.00171    -0.00084    -0.00084     0.00000     0.00000    -0.00000
  y    -0.00000     0.00000     0.00000    -0.00152    -0.00000     0.00000
  z     0.00000     0.00000     0.00000     0.00000     0.00000    -0.00151

 INTERNAL STRAIN TENSOR FOR ION    2 for displacements in x,y,z  (eV/Angst):
          X           Y           Z          XY          YZ          ZX
  x    -0.00202     0.00003     0.00003     0.00000    -0.00000    -0.00000
  y     0.00000     0.00000     0.00000     0.00076     0.00000    -0.00000
  z     0.00000     0.00000     0.00000    -0.00000    -0.00000     0.00076

 SECOND DERIVATIVES (NOT SYMMETRIZED)
               1X          1Y          1Z          2X          2Y          2Z
  1X    -1.595702    0.000000   -0.000000    1.595702   -0.000000    0.000000
  1Y     0.000000   -1.595743    0.000000   -0.000000    1.595743   -0.000000
  1Z    -0.000000    0.000000   -1.595743    0.000000   -0.000000    1.595743
  2X     1.581179   -0.000000    0.000000   -1.581179    0.000000   -0.000000
  2Y    -0.000000    1.581187   -0.000000    0.000000   -1.581187    0.000000
  2Z     0.000000   -0.000000    1.581187   -0.000000    0.000000   -1.581187

 Eigenvectors and eigenvalues of the dynamical matrix

   1 f  =    5.278652 THz    33.166746 2PiTHz  176.076859 cm-1    21.830756 meV
             X         Y         Z           dx          dy          dz
      0.000000  0.000000  0.000000    -0.000000   -0.780262   -0.000000
     -2.794063  2.794063  2.794063     0.000000    0.625453   -0.000000

[...]

   3 f  =    5.278604 THz    33.166449 2PiTHz  176.075282 cm-1    21.830561 meV
             X         Y         Z           dx          dy          dz
      0.000000  0.000000  0.000000     0.780259   -0.000000   -0.000000
     -2.794063  2.794063  2.794063    -0.625457    0.000000    0.000000

   4 f/i=    0.011777 THz     0.073994 2PiTHz    0.392823 cm-1     0.048704 meV
             X         Y         Z           dx          dy          dz
      0.000000  0.000000  0.000000     0.625457   -0.000000   -0.000000
     -2.794063  2.794063  2.794063     0.780259   -0.000000   -0.000000

[...]

   6 f/i=    0.011803 THz     0.074163 2PiTHz    0.393721 cm-1     0.048815 meV
             X         Y         Z           dx          dy          dz
      0.000000  0.000000  0.000000     0.000000    0.164865    0.603333
     -2.794063  2.794063  2.794063     0.000000    0.205672    0.752667

 MACROSCOPIC STATIC DIELECTRIC TENSOR IONIC CONTRIBUTION
           3.097773     0.000076    -0.000118
           0.000076     3.097757    -0.000000
          -0.000118    -0.000000     3.097756

 ELASTIC MODULI IONIC CONTR (kBar)
 Direction    XX          YY          ZZ          XY          YZ          ZX
 XX          -0.0001      0.0000      0.0000      0.0000     -0.0000      0.0000
 YY           0.0000     -0.0000     -0.0000     -0.0000      0.0000     -0.0000
 ZZ           0.0000     -0.0000     -0.0000     -0.0000      0.0000     -0.0000
 XY           0.0000     -0.0000     -0.0000     -0.0000     -0.0000      0.0000
 YZ          -0.0000      0.0000      0.0000     -0.0000     -0.0000      0.0000
 ZX           0.0000     -0.0000     -0.0000      0.0000      0.0000     -0.0000

 PIEZOELECTRIC TENSOR IONIC CONTR  for field in x, y, z        (C/m^2)
          XX          YY          ZZ          XY          YZ          ZX
  x     0.00047    -0.00011    -0.00011    -0.00000     0.00000    -0.00000
  y     0.00000    -0.00000    -0.00000    -0.00029    -0.00000     0.00000
  z    -0.00000     0.00000     0.00000     0.00000     0.00000    -0.00029