 vasp.5.4.4.18Apr17-6-g9f103f2a35 (build Aug 24 2017 11:22:49) complex

 executed on             LinuxIFC date 2023.12.25  13:07:14

 INCAR:
 POTCAR:    PAW_PBE Sr_sv 07Sep2000
 POTCAR:    PAW_PBE S 06Sep2000

 POTCAR:    PAW_PBE Sr_sv 07Sep2000
   VRHFIN =Sr: 4s4p5s

   TITEL  = PAW_PBE Sr_sv 07Sep2000
   POMASS =   87.620; ZVAL   =   10.000    mass and valenz
   ENMAX  =  229.353; ENMIN  =  172.014 eV

 POTCAR:    PAW_PBE S 06Sep2000
   VRHFIN =S : s2p4

   TITEL  = PAW_PBE S 06Sep2000
   POMASS =   32.066; ZVAL   =    6.000    mass and valenz
   ENMAX  =  258.689; ENMIN  =  194.016 eV

  PAW_PBE Sr_sv 07Sep2000               :
  PAW_PBE S 06Sep2000                   :

 POSCAR: Sr1 S1
  positions in direct lattice
 exchange correlation table for  LEXCH =        8
   RHO(1)=    0.500       N(1)  =     2000
   RHO(2)=  100.500       N(2)  =     4000

 ion  position               nearest neighbor table
   1  0.000  0.000  0.000-   2 3.02   2 3.02   2 3.02   2 3.02   2 3.02   2 3.02
   2  0.500  0.500  0.500-   1 3.02   1 3.02   1 3.02   1 3.02   1 3.02   1 3.02

  LATTYP: Found a face centered cubic cell.
 ALAT       =     6.0480330128

  Lattice vectors:

 A1 = (  -3.0240165064,   0.0000000000,   3.0240165064)
 A2 = (   0.0000000000,   3.0240165064,   3.0240165064)
 A3 = (  -3.0240165064,   3.0240165064,   0.0000000000)

Analysis of symmetry for initial positions (statically):
 Subroutine PRICEL returns:
 Original cell was already a primitive cell.

 Routine SETGRP: Setting up the symmetry group for a
 face centered cubic supercell.

 Subroutine GETGRP returns: Found  8 space group operations
 (whereof  8 operations were pure point group operations)
 out of a pool of 48 trial point group operations.

The static configuration has the point symmetry C_4v.

Analysis of symmetry for dynamics (positions and initial velocities):
 Subroutine PRICEL returns:
 Original cell was already a primitive cell.

[...]

The dynamic configuration has the point symmetry C_4v.

 Subroutine INISYM returns: Found  8 space group operations
 (whereof  8 operations are pure point group operations),
 and found     1 'primitive' translations

 KPOINTS: pymatgen with grid density = 3000 / numb

Automatic generation of k-mesh.
Space group operators:
 irot       det(A)        alpha          n_x          n_y          n_z        tau_x        tau_y        tau_z
    1     1.000000     0.000000     1.000000     0.000000     0.000000     0.000000     0.000000     0.000000
    2     1.000000    90.000000    -1.000000    -0.000000     0.000000     0.000000     0.000000     0.000000
    3    -1.000000   180.000000     0.000000    -0.000000     1.000000     0.000000     0.000000     0.000000
    4    -1.000000   180.000000    -0.000000     0.707107     0.707107     0.000000     0.000000     0.000000
    5    -1.000000   180.000000     0.000000    -1.000000    -0.000000     0.000000     0.000000     0.000000
    6     1.000000    90.000000     1.000000     0.000000    -0.000000     0.000000     0.000000     0.000000
    7     1.000000   180.000000     1.000000     0.000000     0.000000     0.000000     0.000000     0.000000
    8    -1.000000   180.000000     0.000000    -0.707107     0.707107     0.000000     0.000000     0.000000

 Subroutine IBZKPT returns following result:

 Found    163 irreducible k-points:

 Following reciprocal coordinates:
            Coordinates               Weight
  0.000000  0.000000  0.000000      1.000000
  0.083333  0.000000  0.000000      8.000000
  0.166667 -0.000000  0.000000      8.000000
  0.250000  0.000000  0.000000      8.000000
  0.333333  0.000000  0.000000      8.000000
  0.416667 -0.000000 -0.000000      8.000000
  0.500000  0.000000  0.000000      4.000000
  0.083333  0.083333  0.000000      4.000000
  0.166667  0.083333  0.000000     16.000000
  0.250000  0.083333  0.000000     16.000000
  0.333333  0.083333  0.000000     16.000000
  0.416667  0.083333  0.000000     16.000000
  0.500000  0.083333  0.000000     16.000000
 -0.416667  0.083333 -0.000000     16.000000
 -0.333333  0.083333 -0.000000     16.000000
 -0.250000  0.083333 -0.000000     16.000000
 -0.166667  0.083333 -0.000000     16.000000
 -0.083333  0.083333 -0.000000      8.000000
  0.166667  0.166667  0.000000      4.000000
  0.250000  0.166667  0.000000     16.000000
  0.333333  0.166667  0.000000     16.000000
  0.416667  0.166667  0.000000     16.000000
  0.500000  0.166667  0.000000     16.000000
 -0.416667  0.166667 -0.000000     16.000000
 -0.333333  0.166667 -0.000000     16.000000
 -0.250000  0.166667  0.000000     16.000000
 -0.166667  0.166667  0.000000      8.000000
  0.250000  0.250000  0.000000      4.000000
  0.333333  0.250000  0.000000     16.000000
  0.416667  0.250000  0.000000     16.000000
  0.500000  0.250000  0.000000     16.000000
 -0.416667  0.250000 -0.000000     16.000000
 -0.333333  0.250000 -0.000000     16.000000
 -0.250000  0.250000 -0.000000      8.000000
  0.333333  0.333333  0.000000      4.000000
  0.416667  0.333333  0.000000     16.000000
  0.500000  0.333333  0.000000     16.000000
 -0.416667  0.333333  0.000000     16.000000
 -0.333333  0.333333 -0.000000      8.000000
  0.416667  0.416667  0.000000      4.000000
  0.500000  0.416667  0.000000     16.000000
 -0.416667  0.416667  0.000000      8.000000
  0.500000  0.500000  0.000000      2.000000
  0.083333  0.000000  0.083333      2.000000
  0.166667 -0.000000  0.083333      8.000000
  0.250000 -0.000000  0.083333      8.000000
  0.333333 -0.000000  0.083333      8.000000
  0.416667 -0.000000  0.083333      8.000000
  0.500000 -0.000000  0.083333      8.000000
 -0.416667 -0.000000  0.083333      8.000000
 -0.333333 -0.000000  0.083333      8.000000
 -0.250000 -0.000000  0.083333      8.000000
 -0.166667 -0.000000  0.083333      8.000000
 -0.083333 -0.000000  0.083333      4.000000
  0.250000  0.166667  0.083333      8.000000
  0.333333  0.166667  0.083333     16.000000
  0.416667  0.166667  0.083333     16.000000
  0.500000  0.166667  0.083333     16.000000
 -0.416667  0.166667  0.083333      8.000000
  0.166667  0.250000  0.083333      8.000000
[...]
  0.333333 -0.083333  0.250000      8.000000
  0.333333  0.000000  0.333333      2.000000
  0.416667  0.000000  0.333333      8.000000
  0.500000  0.000000  0.333333      8.000000
 -0.416667  0.000000  0.333333      8.000000
 -0.333333 -0.000000  0.333333      4.000000
  0.416667 -0.250000  0.333333      8.000000
  0.416667 -0.166667  0.333333     16.000000
  0.500000 -0.166667  0.333333      4.000000
  0.416667 -0.083333  0.333333      8.000000
  0.416667  0.000000  0.416667      2.000000
  0.500000  0.000000  0.416667      8.000000
 -0.416667  0.000000  0.416667      4.000000
  0.500000 -0.083333  0.416667      4.000000
  0.500000  0.000000  0.500000      1.000000

 Following cartesian coordinates:
            Coordinates               Weight
  0.000000  0.000000  0.000000      1.000000
 -0.013779 -0.013779  0.013779      8.000000
 -0.027557 -0.027557  0.027557      8.000000
 -0.041336 -0.041336  0.041336      8.000000
 -0.055114 -0.055114  0.055114      8.000000
 -0.068893 -0.068893  0.068893      8.000000
 -0.082672 -0.082672  0.082672      4.000000
  0.000000  0.000000  0.027557      4.000000
 -0.013779 -0.013779  0.041336     16.000000
 -0.027557 -0.027557  0.055114     16.000000
 -0.041336 -0.041336  0.068893     16.000000
 -0.055114 -0.055114  0.082672     16.000000
 -0.068893 -0.068893  0.096450     16.000000
  0.082672  0.082672 -0.055114     16.000000
  0.068893  0.068893 -0.041336     16.000000
  0.055114  0.055114 -0.027557     16.000000
  0.041336  0.041336 -0.013779     16.000000
  0.027557  0.027557  0.000000      8.000000
  0.000000  0.000000  0.055114      4.000000
 -0.013779 -0.013779  0.068893     16.000000
 -0.027557 -0.027557  0.082672     16.000000
 -0.041336 -0.041336  0.096450     16.000000
 -0.055114 -0.055114  0.110229     16.000000
  0.096450  0.096450 -0.041336     16.000000
  0.082672  0.082672 -0.027557     16.000000
  0.068893  0.068893 -0.013779     16.000000
  0.055114  0.055114  0.000000      8.000000
  0.000000  0.000000  0.082672      4.000000
 -0.013779 -0.013779  0.096450     16.000000
 -0.027557 -0.027557  0.110229     16.000000
 -0.041336 -0.041336  0.124007     16.000000
  0.110229  0.110229 -0.027557     16.000000
  0.096450  0.096450 -0.013779     16.000000
  0.082672  0.082672  0.000000      8.000000
  0.000000  0.000000  0.110229      4.000000
 -0.013779 -0.013779  0.124007     16.000000
 -0.027557 -0.027557  0.137786     16.000000
  0.124007  0.124007 -0.013779     16.000000
  0.110229  0.110229  0.000000      8.000000
  0.000000  0.000000  0.137786      4.000000
 -0.013779 -0.013779  0.151564     16.000000
  0.137786  0.137786  0.000000      8.000000
  0.000000  0.000000  0.165343      2.000000
 -0.027557  0.000000  0.000000      2.000000
 -0.041336 -0.013779  0.013779      8.000000
 -0.055114 -0.027557  0.027557      8.000000
 -0.068893 -0.041336  0.041336      8.000000
 -0.082672 -0.055114  0.055114      8.000000
 -0.096450 -0.068893  0.068893      8.000000
  0.055114  0.082672 -0.082672      8.000000
  0.041336  0.068893 -0.068893      8.000000
  0.027557  0.055114 -0.055114      8.000000
  0.013779  0.041336 -0.041336      8.000000
  0.000000  0.027557 -0.027557      4.000000
 -0.027557  0.000000  0.055114      8.000000
 -0.041336 -0.013779  0.068893     16.000000
 -0.055114 -0.027557  0.082672     16.000000
 -0.068893 -0.041336  0.096450     16.000000
  0.082672  0.110229 -0.055114      8.000000
  0.000000  0.027557  0.055114      8.000000
[...]
 -0.110229 -0.027557 -0.000000      8.000000
 -0.110229  0.000000  0.000000      2.000000
 -0.124007 -0.013779  0.013779      8.000000
 -0.137786 -0.027557  0.027557      8.000000
  0.013779  0.124007 -0.124007      8.000000
  0.000000  0.110229 -0.110229      4.000000
 -0.165343 -0.055114 -0.027557      8.000000
 -0.151564 -0.041336 -0.013779     16.000000
 -0.165343 -0.055114 -0.000000      4.000000
 -0.137786 -0.027557  0.000000      8.000000
 -0.137786  0.000000  0.000000      2.000000
 -0.151564 -0.013779  0.013779      8.000000
  0.000000  0.137786 -0.137786      4.000000
 -0.165343 -0.027557  0.000000      4.000000
 -0.165343  0.000000  0.000000      1.000000

 Subroutine IBZKPT_HF returns following result:

 Found   1728 k-points in 1st BZ
 the following   1728 k-points will be used (e.g. in the exchange kernel)
 Following reciprocal coordinates:   # in IRBZ
  0.000000  0.000000  0.000000    0.00057870   1 t-inv F
  0.083333  0.000000  0.000000    0.00057870   2 t-inv F
  0.166667 -0.000000  0.000000    0.00057870   3 t-inv F
  0.250000  0.000000  0.000000    0.00057870   4 t-inv F
  0.333333  0.000000  0.000000    0.00057870   5 t-inv F
  0.416667 -0.000000 -0.000000    0.00057870   6 t-inv F
  0.500000  0.000000  0.000000    0.00057870   7 t-inv F
  0.083333  0.083333  0.000000    0.00057870   8 t-inv F
  0.166667  0.083333  0.000000    0.00057870   9 t-inv F
  0.250000  0.083333  0.000000    0.00057870  10 t-inv F
  0.333333  0.083333  0.000000    0.00057870  11 t-inv F
  0.416667  0.083333  0.000000    0.00057870  12 t-inv F
[...]
      9       5.3884      0.00000
     10       6.2115      0.00000
     11       6.2115      0.00000
     12       6.2115      0.00000
     13       7.0811      0.00000
     14       7.0811      0.00000
     15      11.6127      0.00000
     16      16.6975      0.00000

[...]

 soft charge-density along one line, spin component           1
         0         1         2         3         4         5         6         7         8         9
 total charge-density along one line

------------------------ aborting loop because EDIFF is reached ----------------------------------------

  FORCE on cell =-STRESS in cart. coord.  units (eV):
  Direction    XX          YY          ZZ          XY          YZ          ZX
  Alpha Z    61.51218    61.51218    61.51218
  Ewald    -299.32308  -299.32308  -299.32308    -0.00000    -0.00000    -0.00000
  Hartree    64.67430    64.67430    64.67430    -0.00000     0.00000    -0.00000
  E(xc)     -59.00843   -59.00843   -59.00843    -0.00000     0.00000    -0.00000
  Local       4.49304     4.49304     4.49304    -0.00001     0.00001    -0.00001
  n-local    23.56801    23.48805    23.64797     0.09535    -0.01806    -0.01770
  augment   -13.37914   -13.37914   -13.37914     0.00001    -0.00001     0.00001
  Kinetic   217.58972   218.27494   216.90450    -5.31983     0.73187     1.95294
  Fock        0.00000     0.00000     0.00000     0.00000     0.00000     0.00000
  Total       0.12659     0.12659     0.12659    -0.00000     0.00000     0.00000
  in kB       3.66720     3.66720     3.66720    -0.00000     0.00000     0.00000

 VOLUME and BASIS-vectors are now :
  energy-cutoff  :      520.00
  volume of cell :       55.31
      direct lattice vectors                 reciprocal lattice vectors
    -3.024016506  0.000000000  3.024016506    -0.165343013 -0.165343013  0.165343013
     0.000000000  3.024016506  3.024016506     0.165343013  0.165343013  0.165343013
    -3.024016506  3.024016506  0.000000000    -0.165343013  0.165343013 -0.165343013

  length of vectors
     4.276605156  4.276605156  4.276605156     0.286382499  0.286382499  0.286382499

 FORCES acting on ions
    electron-ion (+dipol)            ewald-force                    non-local-force                 convergence-correction
   -.158E-04 0.779E-14 0.642E-14   0.152E-04 -.273E-14 -.676E-14   0.127E-05 0.789E-23 0.154E-22   -.114E-07 0.299E-12 0.289E-12
   0.160E-04 0.361E-11 0.318E-11   -.152E-04 0.203E-14 0.628E-14   -.141E-05 -.217E-22 -.567E-23   0.119E-07 -.127E-11 -.127E-11
   0.163E-06 0.362E-11 0.318E-11   -.497E-15 -.698E-15 -.481E-15   -.146E-06 -.138E-22 0.969E-23   0.415E-09 -.971E-12 -.982E-12

 POSITION                                       TOTAL-FORCE (eV/Angst)
      0.00000      0.00000      0.00000         0.000001     -0.000000     -0.000000
     -3.02402      3.02402      3.02402        -0.000001      0.000000      0.000000
    total drift:                                0.000000      0.000000      0.000000

  FREE ENERGIE OF THE ION-ELECTRON SYSTEM (eV)
  free  energy   TOTEN  =       -10.06199746 eV

  energy  without entropy=      -10.06199746  energy(sigma->0) =      -10.06199746

 Found     4 degrees of freedom:

     directions for atom     1:  y
     directions for atom     2:  y
 Linear response reoptimize wavefunctions
 Linear response to external field (no local field effect), progress :
  Direction:   1
  LATTYP: Found a face centered cubic cell.
 ALAT       =     6.0480330128

[...]

----------------------------------------- Iteration    1(   1)  ---------------------------------------

 Free energy of the ion-electron system (eV)
  -Hartree energ DENC   =         0.00000000
  -V(xc)+E(xc)   XCENC  =         0.00000000
  PAW double counting   =         0.00000000        0.00000000
  entropy T*S    EENTRO =         0.00000000
  eigenvalues    EBANDS =        -0.58984659
  free energy    TOTEN  =        -0.58984659 eV

  energy without entropy =       -0.58984659

[...]

 change of polarisation eV/A/(eV/A) component  1 :     1.249    -0.226     0.054
 dielectric tensor                  component  1 :     5.087    -0.738     0.176

 Linear response to external field (no local field effect), progress :
  Direction:   2
  LATTYP: Found a face centered cubic cell.
 ALAT       =     6.0480330128

[...]

The dynamic configuration has the point symmetry C_1h.

[...]

 Linear response to external field (no local field effect), progress :
  Direction:   3
  LATTYP: Found a face centered cubic cell.
 ALAT       =     6.0480330128

[...]

 HEAD OF MICROSCOPIC STATIC DIELECTRIC TENSOR (INDEPENDENT PARTICLE, excluding Hartree and local field effects)
           5.086761     0.000000     0.000000
           0.000000     5.086979    -0.000000
           0.000000    -0.000000     5.086979

 Linear response to external field, progress :
  Direction:   1
  LATTYP: Found a face centered cubic cell.
 ALAT       =     6.0480330128

[...]

 PIEZOELECTRIC TENSOR FIELD DIRECTION 1  (e Angst)
     0.00014 -0.00000  0.00000           ( -0.00000  0.00000  0.00000)
    -0.00000  0.00006 -0.00000           (  0.00000  0.00000 -0.00000)
     0.00000 -0.00000  0.00006           (  0.00000 -0.00000  0.00000)

 PIEZOELECTRIC TENSOR FIELD DIRECTION 1  (C/m^2)
     0.00004 -0.00000  0.00000
    -0.00000  0.00002 -0.00000
     0.00000 -0.00000  0.00002

      POSITION         DIRECTION 1           BORN EFFECTIVE CHARGE    (rigid.aug.   ionic)
      0.00000      0.00000      0.00000     2.40066  0.00000 -0.00000 ( -0.56157 10.00000)
     -3.02402      3.02402      3.02402    -2.40069 -0.00000  0.00000 (  0.81544  6.00000)
    total drift (improves with k-points):  -0.00003 -0.00000 -0.00000

[...]

 Linear response to external field, progress :
  Direction:   3
  LATTYP: Found a face centered cubic cell.
 ALAT       =     6.0480330128

[...]

 change of polarisation eV/A/(eV/A) component  3 :    -0.000     0.004     1.118
 dielectric tensor                  component  3 :    -0.000     0.014     4.658

 PIEZOELECTRIC TENSOR FIELD DIRECTION 3  (e Angst)
     0.00000 -0.00000 -0.00015           (  0.00000 -0.00000  0.00000)
    -0.00000 -0.00002  0.00000           ( -0.00000  0.00000  0.00000)
    -0.00015  0.00000  0.00002           (  0.00000  0.00000 -0.00000)

 PIEZOELECTRIC TENSOR FIELD DIRECTION 3  (C/m^2)
     0.00000 -0.00000 -0.00004
    -0.00000 -0.00000  0.00000
    -0.00004  0.00000  0.00001

      POSITION         DIRECTION 3           BORN EFFECTIVE CHARGE    (rigid.aug.   ionic)
      0.00000      0.00000      0.00000     0.00002  0.00000  2.40068 ( -0.56157 10.00000)
     -3.02402      3.02402      3.02402    -0.00001 -0.00000 -2.40083 (  0.81544  6.00000)
    total drift (improves with k-points):   0.00001 -0.00000 -0.00015

[...]

 MACROSCOPIC STATIC DIELECTRIC TENSOR (including local field effects in DFT)
           4.657400    -0.000000     0.000000
           0.000000     4.657654    -0.000000
           0.000000    -0.000000     4.657654

 Linear response:
   Degrees of freedom DOF   =            4
 Linear response progress:
  Degree of freedom:   1/  4
  LATTYP: Found a face centered cubic cell.
 ALAT       =     6.0480330128

[...]

 INTERNAL STRAIN TENSOR  FOR ION    1  DIRECTION 1   (eV/Angst):
     0.00167 -0.00000  0.00000
     0.00000 -0.00011 -0.00000
     0.00000 -0.00000 -0.00011

 POSITION                   FORCE-CONSTANT FOR ION    1 DIRECTION 1 (eV/Angst/Angst)
      0.00000      0.00000      0.00000        -2.674055      0.000000     -0.000000
     -3.02402      3.02402      3.02402         2.674055     -0.000000      0.000000
    total drift:                                0.000000      0.000000     -0.000000

 BORN EFFECTIVE CHARGE FOR ION    1 DIRECTION 1 :   2.401  -0.000   0.000
                   rigid augmentation           :  -0.562  -0.000   0.000
                   ionic contribution           :  10.000  -0.000   0.000
                   Berry contribution           :  -7.038   0.000  -0.000

 Linear response progress:
  Degree of freedom:   2/  4
  LATTYP: Found a face centered cubic cell.
 ALAT       =     6.0480330128

[...]

 Linear response progress:
  Degree of freedom:   4/  4
  LATTYP: Found a face centered cubic cell.
 ALAT       =     6.0480330128

[...]

The dynamic configuration has the point symmetry C_1h.

[...]

----------------------------------------- Iteration    8(  14)  ---------------------------------------

 Broyden mixing:
  rms(total) = 0.65759E-05    rms(broyden)= 0.65759E-05
  rms(prec ) = 0.74139E-05
  weight for this iteration     100.00

 eigenvalues of (default mixing * dielectric matrix)
  average eigenvalue GAMMA=   1.7950
  3.5333  3.0649  2.7052  2.3948  2.0682  1.5653  1.5653  1.0350  0.9390  0.9173
  0.9173  0.8340

 Free energy of the ion-electron system (eV)
  -Hartree energ DENC   =        -0.05962641
  -V(xc)+E(xc)   XCENC  =         0.00029980
  PAW double counting   =         0.00235866       -0.00235831
  entropy T*S    EENTRO =        -0.00000000
  eigenvalues    EBANDS =        -0.05183407
  free energy    TOTEN  =        -0.11116034 eV

  energy without entropy =       -0.11116034

[...]

 k-point 476 :       0.0000   -0.5000   -0.5000
  band No.  band energies     occupation
      1      -0.0001      0.00000
      2      -0.0001      0.00000
      3      -0.0001      0.00000
      4      -0.0001      0.00000
      5       0.0002      0.00000
      6       0.0001      0.00000
      7       0.0002      0.00000
      8       0.0002      0.00000
      9       0.0000      0.00000
     10       0.0000      0.00000
     11       0.0000      0.00000
     12      -0.0000      0.00000
     13      -0.0001      0.00000
     14      -0.0001      0.00000
     15       0.0001      0.00000
     16       0.0002      0.00000

------------------------ aborting loop because EDIFF is reached ----------------------------------------

 INTERNAL STRAIN TENSOR  FOR ION    2  DIRECTION 2   (eV/Angst):
     0.00075 -0.00142  0.00000
    -0.00143  0.00030  0.00000
     0.00000  0.00000  0.00020

 POSITION                   FORCE-CONSTANT FOR ION    2 DIRECTION 2 (eV/Angst/Angst)
      0.00000      0.00000      0.00000        -0.000011      2.680425     -0.000000
     -3.02402      3.02402      3.02402         0.000011     -2.680425      0.000000
    total drift:                                0.000000      0.000000      0.000000

 BORN EFFECTIVE CHARGE FOR ION    2 DIRECTION 2 :  -0.000  -2.401   0.000
                   rigid augmentation           :  -0.000   0.815  -0.000
                   ionic contribution           :  -0.000   6.000  -0.000
                   Berry contribution           :  -0.000  -9.216   0.000

  LATTYP: Found a face centered cubic cell.
 ALAT       =     6.0480330128

  Lattice vectors:

 A1 = (  -3.0240165064,   0.0000000000,   3.0240165064)
 A2 = (   0.0000000000,   3.0240165064,   3.0240165064)
 A3 = (  -3.0240165064,   3.0240165064,   0.0000000000)

Analysis of symmetry for initial positions (statically):
 Subroutine PRICEL returns:
 Original cell was already a primitive cell.

[...]

The static configuration has the point symmetry C_4v.

Analysis of symmetry for dynamics (positions and initial velocities):
 Subroutine PRICEL returns:
 Original cell was already a primitive cell.

 Routine SETGRP: Setting up the symmetry group for a
 face centered cubic supercell.

 Subroutine GETGRP returns: Found  8 space group operations
 (whereof  8 operations were pure point group operations)
 out of a pool of 48 trial point group operations.

The dynamic configuration has the point symmetry C_4v.

 Subroutine INISYM returns: Found  8 space group operations
 (whereof  8 operations are pure point group operations),
 and found     1 'primitive' translations

 MACROSCOPIC STATIC DIELECTRIC TENSOR (including local field effects in DFT)
           4.657400    -0.000000     0.000000
           0.000000     4.657654    -0.000000
           0.000000    -0.000000     4.657654

 PIEZOELECTRIC TENSOR  for field in x, y, z        (e  Angst)
          XX          YY          ZZ          XY          YZ          ZX
  x     0.00014     0.00006     0.00006    -0.00000    -0.00000     0.00000
  y    -0.00005     0.00005    -0.00010     0.00028     0.00000     0.00000
  z     0.00000    -0.00002     0.00002    -0.00000     0.00000    -0.00015

 PIEZOELECTRIC TENSOR  for field in x, y, z        (C/m^2)
          XX          YY          ZZ          XY          YZ          ZX
  x     0.00004     0.00002     0.00002    -0.00000    -0.00000     0.00000
  y    -0.00000    -0.00000    -0.00000     0.00002     0.00000    -0.00000
  z     0.00000     0.00000    -0.00000    -0.00000    -0.00000     0.00002

 BORN EFFECTIVE CHARGES (in e, cummulative output)
 ion    1
    1     2.40067     0.00000    -0.00000
    2    -0.00005     2.40081     0.00000
    3     0.00002     0.00000     2.40075
 ion    2
    1    -2.40067    -0.00000     0.00000
    2     0.00005    -2.40081    -0.00000
    3    -0.00002    -0.00000    -2.40075

 INTERNAL STRAIN TENSOR FOR ION    1 for displacements in x,y,z  (eV/Angst):
          X           Y           Z          XY          YZ          ZX
  x     0.00167    -0.00011    -0.00011    -0.00000     0.00000     0.00000
  y    -0.00000     0.00000     0.00000    -0.00066    -0.00000     0.00000
  z     0.00000     0.00000     0.00000     0.00000     0.00000    -0.00066

 INTERNAL STRAIN TENSOR FOR ION    2 for displacements in x,y,z  (eV/Angst):
          X           Y           Z          XY          YZ          ZX
  x    -0.00104    -0.00036    -0.00036     0.00000     0.00000    -0.00000
  y     0.00000     0.00000     0.00000    -0.00143    -0.00000     0.00000
  z     0.00000     0.00000     0.00000     0.00000     0.00000    -0.00142

 SECOND DERIVATIVES (NOT SYMMETRIZED)
               1X          1Y          1Z          2X          2Y          2Z
  1X    -2.674055    0.000000   -0.000000    2.674055   -0.000000    0.000000
  1Y     0.000000   -2.674100    0.000000   -0.000000    2.674100   -0.000000
  1Z    -0.000000    0.000000   -2.674100    0.000000   -0.000000    2.674100
  2X     2.680393   -0.000000    0.000000   -2.680393    0.000000   -0.000000
  2Y    -0.000000    2.680425   -0.000000    0.000000   -2.680425    0.000000
  2Z     0.000000   -0.000000    2.680425   -0.000000    0.000000   -2.680425

 Eigenvectors and eigenvalues of the dynamical matrix

   1 f  =    5.280961 THz    33.181257 2PiTHz  176.153894 cm-1    21.840307 meV
             X         Y         Z           dx          dy          dz
      0.000000  0.000000  0.000000    -0.000000    0.517160    0.000000
     -3.024016  3.024017  3.024017     0.000000   -0.855889    0.000000

[...]

   3 f  =    5.280926 THz    33.181038 2PiTHz  176.152731 cm-1    21.840163 meV
             X         Y         Z           dx          dy          dz
      0.000000  0.000000  0.000000    -0.517159   -0.000000   -0.000000
     -3.024016  3.024017  3.024017     0.855889    0.000000    0.000000

   4 f/i=    0.002761 THz     0.017349 2PiTHz    0.092101 cm-1     0.011419 meV
             X         Y         Z           dx          dy          dz
      0.000000  0.000000  0.000000     0.000000   -0.000000    0.855889
     -3.024016  3.024017  3.024017    -0.000000    0.000000    0.517160

[...]

   6 f/i=    0.002767 THz     0.017385 2PiTHz    0.092294 cm-1     0.011443 meV
             X         Y         Z           dx          dy          dz
      0.000000  0.000000  0.000000     0.855889    0.000000    0.000000
     -3.024016  3.024017  3.024017     0.517159    0.000000    0.000000

 MACROSCOPIC STATIC DIELECTRIC TENSOR IONIC CONTRIBUTION
           7.043109    -0.000146     0.000046
          -0.000146     7.043797    -0.000000
           0.000046    -0.000000     7.043469

 ELASTIC MODULI IONIC CONTR (kBar)
 Direction    XX          YY          ZZ          XY          YZ          ZX
 XX          -0.0000     -0.0000     -0.0000     -0.0000      0.0000     -0.0000
 YY          -0.0000     -0.0000     -0.0000     -0.0000      0.0000     -0.0000
 ZZ          -0.0000     -0.0000     -0.0000     -0.0000      0.0000     -0.0000
 XY          -0.0000     -0.0000     -0.0000     -0.0000     -0.0000      0.0000
 YZ           0.0000      0.0000      0.0000     -0.0000     -0.0000      0.0000
 ZX          -0.0000     -0.0000     -0.0000      0.0000      0.0000     -0.0000

 PIEZOELECTRIC TENSOR IONIC CONTR  for field in x, y, z        (C/m^2)
          XX          YY          ZZ          XY          YZ          ZX
  x     0.00035     0.00003     0.00003     0.00000    -0.00000     0.00000
  y    -0.00000    -0.00000    -0.00000     0.00010     0.00000    -0.00000
  z     0.00000     0.00000     0.00000     0.00000    -0.00000     0.00010