 vasp.5.4.4.18Apr17-6-g9f103f2a35 (build Aug 24 2017 11:22:49) complex

 executed on             LinuxIFC date 2023.12.25  13:07:54

 INCAR:
 POTCAR:    PAW_PBE Kr 07Sep2000

 POTCAR:    PAW_PBE Kr 07Sep2000
   VRHFIN =Kr: s2p6

   TITEL  = PAW_PBE Kr 07Sep2000
   POMASS =   83.800; ZVAL   =    8.000    mass and valenz
   ENMAX  =  185.331; ENMIN  =  138.998 eV

  PAW_PBE Kr 07Sep2000                  :

 POSCAR: Kr1
  positions in direct lattice
 exchange correlation table for  LEXCH =        8
   RHO(1)=    0.500       N(1)  =     2000
   RHO(2)=  100.500       N(2)  =     4000

 ion  position               nearest neighbor table
   1  0.000  0.000  0.000-

  LATTYP: Found a face centered cubic cell.
 ALAT       =     5.7930284703

  Lattice vectors:

 A1 = (  -2.8965142352,   0.0000000000,   2.8965142352)
 A2 = (   0.0000000000,   2.8965142352,   2.8965142352)
 A3 = (  -2.8965142352,   2.8965142352,   0.0000000000)

Analysis of symmetry for initial positions (statically):
 Subroutine PRICEL returns:
 Original cell was already a primitive cell.

 Routine SETGRP: Setting up the symmetry group for a
 face centered cubic supercell.

 Subroutine GETGRP returns: Found 48 space group operations
 (whereof 48 operations were pure point group operations)
 out of a pool of 48 trial point group operations.

The static configuration has the point symmetry O_h .

Analysis of symmetry for dynamics (positions and initial velocities):
 Subroutine PRICEL returns:
 Original cell was already a primitive cell.

[...]

The dynamic configuration has the point symmetry O_h .

 Subroutine INISYM returns: Found 48 space group operations
 (whereof 48 operations are pure point group operations),
 and found     1 'primitive' translations

 KPOINTS: pymatgen with grid density = 3000 / numb

Automatic generation of k-mesh.
Space group operators:
 irot       det(A)        alpha          n_x          n_y          n_z        tau_x        tau_y        tau_z
    1     1.000000     0.000000     1.000000     0.000000     0.000000     0.000000     0.000000     0.000000
    2    -1.000000     0.000000     1.000000     0.000000     0.000000     0.000000     0.000000     0.000000
    3     1.000000   120.000000     0.577350    -0.577350    -0.577350     0.000000     0.000000     0.000000
    4    -1.000000   120.000000     0.577350    -0.577350    -0.577350     0.000000     0.000000     0.000000
    5     1.000000   120.000000    -0.577350     0.577350     0.577350     0.000000     0.000000     0.000000
    6    -1.000000   120.000000    -0.577350     0.577350     0.577350     0.000000     0.000000     0.000000
    7     1.000000    90.000000     0.000000     0.000000    -1.000000     0.000000     0.000000     0.000000
    8    -1.000000    90.000000     0.000000     0.000000    -1.000000     0.000000     0.000000     0.000000
    9     1.000000   180.000000     0.707107     0.000000    -0.707107     0.000000     0.000000     0.000000
   10    -1.000000   180.000000     0.707107     0.000000    -0.707107     0.000000     0.000000     0.000000
   11     1.000000    90.000000    -1.000000     0.000000     0.000000     0.000000     0.000000     0.000000
   12    -1.000000    90.000000    -1.000000     0.000000     0.000000     0.000000     0.000000     0.000000
   13     1.000000   180.000000    -0.000000     0.000000     1.000000     0.000000     0.000000     0.000000
   14    -1.000000   180.000000    -0.000000     0.000000     1.000000     0.000000     0.000000     0.000000
   15     1.000000   120.000000    -0.577350    -0.577350     0.577350     0.000000     0.000000     0.000000
   16    -1.000000   120.000000    -0.577350    -0.577350     0.577350     0.000000     0.000000     0.000000
   17     1.000000   120.000000    -0.577350    -0.577350    -0.577350     0.000000     0.000000     0.000000
   18    -1.000000   120.000000    -0.577350    -0.577350    -0.577350     0.000000     0.000000     0.000000
   19     1.000000    90.000000     0.000000    -0.000000     1.000000     0.000000     0.000000     0.000000
   20    -1.000000    90.000000     0.000000    -0.000000     1.000000     0.000000     0.000000     0.000000
   21     1.000000    90.000000     0.000000    -1.000000    -0.000000     0.000000     0.000000     0.000000
   22    -1.000000    90.000000     0.000000    -1.000000    -0.000000     0.000000     0.000000     0.000000
   23     1.000000   180.000000     0.000000     0.707107     0.707107     0.000000     0.000000     0.000000
   24    -1.000000   180.000000     0.000000     0.707107     0.707107     0.000000     0.000000     0.000000
   25     1.000000   120.000000     0.577350     0.577350     0.577350     0.000000     0.000000     0.000000
   26    -1.000000   120.000000     0.577350     0.577350     0.577350     0.000000     0.000000     0.000000
   27     1.000000   120.000000     0.577350    -0.577350     0.577350     0.000000     0.000000     0.000000
   28    -1.000000   120.000000     0.577350    -0.577350     0.577350     0.000000     0.000000     0.000000
   29     1.000000   180.000000    -0.000000    -1.000000     0.000000     0.000000     0.000000     0.000000
   30    -1.000000   180.000000    -0.000000    -1.000000     0.000000     0.000000     0.000000     0.000000
   31     1.000000    90.000000     1.000000     0.000000     0.000000     0.000000     0.000000     0.000000
   32    -1.000000    90.000000     1.000000     0.000000     0.000000     0.000000     0.000000     0.000000
   33     1.000000   180.000000     0.707107    -0.707107    -0.000000     0.000000     0.000000     0.000000
   34    -1.000000   180.000000     0.707107    -0.707107    -0.000000     0.000000     0.000000     0.000000
   35     1.000000    90.000000     0.000000     1.000000     0.000000     0.000000     0.000000     0.000000
   36    -1.000000    90.000000     0.000000     1.000000     0.000000     0.000000     0.000000     0.000000
   37     1.000000   120.000000     0.577350     0.577350    -0.577350     0.000000     0.000000     0.000000
   38    -1.000000   120.000000     0.577350     0.577350    -0.577350     0.000000     0.000000     0.000000
   39     1.000000   180.000000     1.000000     0.000000     0.000000     0.000000     0.000000     0.000000
   40    -1.000000   180.000000     1.000000     0.000000     0.000000     0.000000     0.000000     0.000000
   41     1.000000   120.000000    -0.577350     0.577350    -0.577350     0.000000     0.000000     0.000000
   42    -1.000000   120.000000    -0.577350     0.577350    -0.577350     0.000000     0.000000     0.000000
   43     1.000000   180.000000    -0.707107     0.000000    -0.707107     0.000000     0.000000     0.000000
   44    -1.000000   180.000000    -0.707107     0.000000    -0.707107     0.000000     0.000000     0.000000
   45     1.000000   180.000000     0.707107     0.707107     0.000000     0.000000     0.000000     0.000000
   46    -1.000000   180.000000     0.707107     0.707107     0.000000     0.000000     0.000000     0.000000
   47     1.000000   180.000000    -0.000000    -0.707107     0.707107     0.000000     0.000000     0.000000
   48    -1.000000   180.000000    -0.000000    -0.707107     0.707107     0.000000     0.000000     0.000000

 Subroutine IBZKPT returns following result:

 Found    104 irreducible k-points:

 Following reciprocal coordinates:
            Coordinates               Weight
  0.000000  0.000000  0.000000      1.000000
  0.071429  0.000000  0.000000      8.000000
  0.142857  0.000000  0.000000      8.000000
  0.214286 -0.000000 -0.000000      8.000000
  0.285714 -0.000000  0.000000      8.000000
  0.357143  0.000000  0.000000      8.000000
  0.428571 -0.000000 -0.000000      8.000000
  0.500000 -0.000000  0.000000      4.000000
  0.071429  0.071429  0.000000      6.000000
  0.142857  0.071429  0.000000     24.000000
  0.214286  0.071429  0.000000     24.000000
  0.285714  0.071429  0.000000     24.000000
  0.357143  0.071429  0.000000     24.000000
  0.428571  0.071429  0.000000     24.000000
  0.500000  0.071429  0.000000     24.000000
 -0.428571  0.071429  0.000000     24.000000
 -0.357143  0.071429 -0.000000     24.000000
 -0.285714  0.071429 -0.000000     24.000000
 -0.214286  0.071429  0.000000     24.000000
 -0.142857  0.071429 -0.000000     24.000000
 -0.071429  0.071429 -0.000000     12.000000
  0.142857  0.142857  0.000000      6.000000
  0.214286  0.142857 -0.000000     24.000000
  0.285714  0.142857  0.000000     24.000000
  0.357143  0.142857  0.000000     24.000000
  0.428571  0.142857  0.000000     24.000000
  0.500000  0.142857  0.000000     24.000000
 -0.428571  0.142857  0.000000     24.000000
 -0.357143  0.142857 -0.000000     24.000000
 -0.285714  0.142857  0.000000     24.000000
 -0.214286  0.142857 -0.000000     24.000000
 -0.142857  0.142857 -0.000000     12.000000
  0.214286  0.214286  0.000000      6.000000
  0.285714  0.214286  0.000000     24.000000
  0.357143  0.214286  0.000000     24.000000
  0.428571  0.214286  0.000000     24.000000
  0.500000  0.214286  0.000000     24.000000
 -0.428571  0.214286 -0.000000     24.000000
 -0.357143  0.214286  0.000000     24.000000
 -0.285714  0.214286  0.000000     24.000000
 -0.214286  0.214286  0.000000     12.000000
  0.285714  0.285714  0.000000      6.000000
  0.357143  0.285714  0.000000     24.000000
  0.428571  0.285714  0.000000     24.000000
  0.500000  0.285714  0.000000     24.000000
 -0.428571  0.285714 -0.000000     24.000000
 -0.357143  0.285714 -0.000000     24.000000
 -0.285714  0.285714  0.000000     12.000000
  0.357143  0.357143  0.000000      6.000000
  0.428571  0.357143  0.000000     24.000000
  0.500000  0.357143  0.000000     24.000000
 -0.428571  0.357143  0.000000     24.000000
 -0.357143  0.357143  0.000000     12.000000
  0.428571  0.428571  0.000000      6.000000
  0.500000  0.428571  0.000000     24.000000
 -0.428571  0.428571  0.000000     12.000000
  0.500000  0.500000  0.000000      3.000000
  0.214286  0.142857  0.071429     24.000000
  0.285714  0.142857  0.071429     48.000000
  0.357143  0.142857  0.071429     48.000000
[...]
  0.500000  0.285714  0.142857     48.000000
 -0.428571  0.285714  0.142857     48.000000
 -0.357143  0.285714  0.142857     24.000000
  0.500000  0.357143  0.142857     24.000000
 -0.428571  0.357143  0.142857     48.000000
 -0.357143  0.357143  0.142857     48.000000
 -0.285714  0.357143  0.142857     48.000000
 -0.214286  0.357143  0.142857     24.000000
 -0.428571  0.428571  0.142857     24.000000
 -0.357143  0.428571  0.142857     48.000000
 -0.285714  0.428571  0.142857     24.000000
 -0.357143  0.500000  0.142857     12.000000
 -0.357143  0.428571  0.214286     24.000000
 -0.285714  0.428571  0.214286     24.000000
 -0.285714  0.500000  0.214286     12.000000

 Following cartesian coordinates:
            Coordinates               Weight
  0.000000  0.000000  0.000000      1.000000
 -0.012330 -0.012330  0.012330      8.000000
 -0.024660 -0.024660  0.024660      8.000000
 -0.036990 -0.036990  0.036990      8.000000
 -0.049320 -0.049320  0.049320      8.000000
 -0.061650 -0.061650  0.061650      8.000000
 -0.073981 -0.073981  0.073981      8.000000
[...]
  gives a total of   3375 points

 initial charge density was supplied:
 charge density of overlapping atoms calculated
 number of electron       8.0000000 magnetization
 keeping initial charge density in first step

 Maximum index for augmentation-charges         2510 (set IRDMAX)

 First call to EWALD:  gamma=   0.486
 Maximum number of real-space cells 3x 3x 3
 Maximum number of reciprocal cells 3x 3x 3

--------------------------------------- Iteration      1(   1)  ---------------------------------------

 eigenvalue-minimisations  :  1664
 total energy-change (2. order) : 0.3872091E+02  (-0.3512132E+03)
 number of electron       8.0000000 magnetization
 augmentation part        8.0000000 magnetization

 Free energy of the ion-electron system (eV)
  alpha Z        PSCENC =        15.80860744
  Ewald energy   TEWEN  =      -364.69235881
  -Hartree energ DENC   =      -105.86255198
  -exchange      EXHF   =         0.00000000
  -V(xc)+E(xc)   XCENC  =        20.56895635
  PAW double counting   =       404.86091170     -405.18261072
  entropy T*S    EENTRO =        -0.00003439
  eigenvalues    EBANDS =       -33.51415582
  atomic energy  EATOM  =       506.73414284
  Solvation  Ediel_sol  =         0.00000000
  free energy    TOTEN  =        38.72090660 eV

  energy without entropy =       38.72094099  energy(sigma->0) =       38.72092380

[...]

 eigenvalue-minimisations  :  2192
 total energy-change (2. order) :-0.3713185E+02  (-0.3460253E+02)
 number of electron       8.0000000 magnetization
 augmentation part        8.0000000 magnetization

[...]

 Broyden mixing:
  rms(total) = 0.24376E-02    rms(broyden)= 0.22799E-02
  rms(prec ) = 0.78696E-02
  weight for this iteration     100.00

[...]

 eigenvalues of (default mixing * dielectric matrix)
  average eigenvalue GAMMA=   1.6152
  1.6152

[...]

 eigenvalue-minimisations  :  1896
 total energy-change (2. order) :-0.4361908E-05  (-0.3407486E-06)
 number of electron       7.9999998 magnetization
 augmentation part       -1.1650203 magnetization

[...]

--------------------------------------- Iteration      1(  12)  ---------------------------------------

 eigenvalue-minimisations  :  1176
 total energy-change (2. order) : 0.3133152E-08  (-0.6217738E-11)
 number of electron       7.9999998 magnetization
 augmentation part       -1.1650202 magnetization

 Free energy of the ion-electron system (eV)
  alpha Z        PSCENC =        15.80860744
  Ewald energy   TEWEN  =      -364.69235881
  -Hartree energ DENC   =      -105.96729522
  -exchange      EXHF   =         0.00000000
  -V(xc)+E(xc)   XCENC  =        20.57608113
  PAW double counting   =       405.09243195     -405.41567821
  entropy T*S    EENTRO =        -0.00000000
  eigenvalues    EBANDS =       -72.16021265
  atomic energy  EATOM  =       506.73414284
  Solvation  Ediel_sol  =         0.00000000
  free energy    TOTEN  =        -0.02428152 eV

  energy without entropy =       -0.02428152  energy(sigma->0) =       -0.02428152

 average (electrostatic) potential at core
  the test charge radii are     0.9700
  (the norm of the test charge is              1.0000)
       1 -82.6469

 E-fermi :  -4.9932     XC(G=0):  -6.4167     alpha+bet : -3.6487

 k-point     1 :       0.0000    0.0000    0.0000
  band No.  band energies     occupation
      1     -19.5054      2.00000
      2      -5.0464      2.00000
      3      -5.0464      2.00000
      4      -5.0464      2.00000
      5       2.1756      0.00000
      6       8.5406      0.00000
      7       8.5406      0.00000
      8       8.5406      0.00000

[...]

 soft charge-density along one line, spin component           1
         0         1         2         3         4         5         6         7         8         9
 total charge-density along one line

------------------------ aborting loop because EDIFF is reached ----------------------------------------

  FORCE on cell =-STRESS in cart. coord.  units (eV):
  Direction    XX          YY          ZZ          XY          YZ          ZX
  Alpha Z    15.80861    15.80861    15.80861
  Ewald    -121.56412  -121.56412  -121.56412    -0.00000     0.00000     0.00000
  Hartree    35.32243    35.32243    35.32243    -0.00000     0.00000    -0.00000
  E(xc)     -29.19626   -29.19626   -29.19626    -0.00000     0.00000    -0.00000
  Local     -56.93793   -56.93793   -56.93793     0.00001    -0.00001     0.00001
  n-local    60.19480    60.04229    59.53577    -0.44150     0.26545     0.40698
  augment   -23.44486   -23.44486   -23.44486    -0.00002     0.00002    -0.00002
  Kinetic   121.28918   120.83876   118.66262    -1.87378     1.10530     1.65980
  Fock        0.00000     0.00000     0.00000     0.00000     0.00000     0.00000
  Total       0.17567     0.17567     0.17567    -0.00000     0.00000    -0.00000
  in kB       5.79100     5.79100     5.79100    -0.00000     0.00000    -0.00000

 VOLUME and BASIS-vectors are now :
  energy-cutoff  :      520.00
  volume of cell :       48.60
      direct lattice vectors                 reciprocal lattice vectors
    -2.896514235  0.000000000  2.896514235    -0.172621282 -0.172621282  0.172621282
     0.000000000  2.896514235  2.896514235     0.172621282  0.172621282  0.172621282
    -2.896514235  2.896514235  0.000000000    -0.172621282  0.172621282 -0.172621282

  length of vectors
     4.096289715  4.096289715  4.096289715     0.298988831  0.298988831  0.298988831

 FORCES acting on ions
    electron-ion (+dipol)            ewald-force                    non-local-force                 convergence-correction
   0.213E-14 -.518E-14 -.135E-14   -.503E-16 0.830E-16 -.236E-15   -.238E-25 0.626E-25 0.162E-25   0.798E-14 -.520E-14 -.128E-14
   0.213E-14 -.518E-14 -.135E-14   -.503E-16 0.830E-16 -.236E-15   -.238E-25 0.626E-25 0.162E-25   0.798E-14 -.520E-14 -.128E-14

 POSITION                                       TOTAL-FORCE (eV/Angst)
      0.00000      0.00000      0.00000         0.000000      0.000000      0.000000
    total drift:                                0.000000     -0.000000     -0.000000

  FREE ENERGIE OF THE ION-ELECTRON SYSTEM (eV)
  free  energy   TOTEN  =        -0.02428152 eV

  energy  without entropy=       -0.02428152  energy(sigma->0) =       -0.02428152

 Found     1 degrees of freedom:

     directions for atom     1:  x
 Linear response reoptimize wavefunctions
 Linear response to external field (no local field effect), progress :
  Direction:   1
  LATTYP: Found a face centered cubic cell.
 ALAT       =     5.7930284703

[...]

The dynamic configuration has the point symmetry C_4v.

[...]

----------------------------------------- Iteration    1(   1)  ---------------------------------------

 Free energy of the ion-electron system (eV)
  -Hartree energ DENC   =         0.00000000
  -V(xc)+E(xc)   XCENC  =         0.00000000
  PAW double counting   =         0.00000000        0.00000000
  entropy T*S    EENTRO =         0.00000000
  eigenvalues    EBANDS =        -0.16047213
  free energy    TOTEN  =        -0.16047213 eV

  energy without entropy =       -0.16047213

[...]

 change of polarisation eV/A/(eV/A) component  1 :     0.323    -0.048     0.034
 dielectric tensor                  component  1 :     2.202    -0.180     0.125

 Linear response to external field (no local field effect), progress :
  Direction:   2
  LATTYP: Found a face centered cubic cell.
 ALAT       =     5.7930284703

[...]

 Linear response to external field (no local field effect), progress :
  Direction:   3
  LATTYP: Found a face centered cubic cell.
 ALAT       =     5.7930284703

[...]

 HEAD OF MICROSCOPIC STATIC DIELECTRIC TENSOR (INDEPENDENT PARTICLE, excluding Hartree and local field effects)
           2.112664    -0.000000     0.000000
           0.000000     2.112664    -0.000000
          -0.000000     0.000000     2.112664

 Linear response to external field, progress :
  Direction:   1
  LATTYP: Found a face centered cubic cell.
 ALAT       =     5.7930284703

[...]

 PIEZOELECTRIC TENSOR FIELD DIRECTION 1  (e Angst)
     0.00004  0.00000  0.00000           ( -0.00000  0.00000  0.00000)
     0.00000  0.00004  0.00000           (  0.00000  0.00000  0.00000)
     0.00000  0.00000  0.00004           (  0.00000  0.00000  0.00000)

 PIEZOELECTRIC TENSOR FIELD DIRECTION 1  (C/m^2)
     0.00001  0.00000  0.00000
     0.00000  0.00001  0.00000
     0.00000  0.00000  0.00001

      POSITION         DIRECTION 1           BORN EFFECTIVE CHARGE    (rigid.aug.   ionic)
      0.00000      0.00000      0.00000     0.00008  0.00000  0.00000 (  1.16502  8.00000)
    total drift (improves with k-points):   0.00008  0.00000  0.00000

[...]

 Linear response to external field, progress :
  Direction:   3
  LATTYP: Found a face centered cubic cell.
 ALAT       =     5.7930284703

[...]

 change of polarisation eV/A/(eV/A) component  3 :     0.035     0.032     0.237
 dielectric tensor                  component  3 :     0.129     0.121     1.883

 PIEZOELECTRIC TENSOR FIELD DIRECTION 3  (e Angst)
    -0.00004  0.00000 -0.00000           (  0.00000  0.00000  0.00000)
     0.00000 -0.00004  0.00000           (  0.00000  0.00000  0.00000)
    -0.00000  0.00000 -0.00004           (  0.00000  0.00000  0.00000)

 PIEZOELECTRIC TENSOR FIELD DIRECTION 3  (C/m^2)
    -0.00001  0.00000 -0.00000
     0.00000 -0.00001  0.00000
    -0.00000  0.00000 -0.00001

      POSITION         DIRECTION 3           BORN EFFECTIVE CHARGE    (rigid.aug.   ionic)
      0.00000      0.00000      0.00000     0.00000  0.00000  0.00008 (  1.16502  8.00000)
    total drift (improves with k-points):   0.00000  0.00000  0.00008

[...]

 MACROSCOPIC STATIC DIELECTRIC TENSOR (including local field effects in DFT)
           1.882676     0.000000    -0.000000
          -0.000000     1.882676    -0.000000
          -0.000000     0.000000     1.882676

 Linear response:
   Degrees of freedom DOF   =            1
 Linear response progress:
  Degree of freedom:   1/  1
  LATTYP: Found a face centered cubic cell.
 ALAT       =     5.7930284703

[...]

The dynamic configuration has the point symmetry C_4v.

[...]

 Broyden mixing:
  rms(total) = 0.13762E-01    rms(broyden)= 0.11121E-01
  rms(prec ) = 0.24421E-01
  weight for this iteration     100.00
  WARNING: grid for Broyden might be to small

[...]

----------------------------------------- Iteration    4(  11)  ---------------------------------------

 Broyden mixing:
  rms(total) = 0.79113E-06    rms(broyden)= 0.79099E-06
  rms(prec ) = 0.13271E-05
  weight for this iteration     100.00

 eigenvalues of (default mixing * dielectric matrix)
  average eigenvalue GAMMA=   1.6406
  3.0797  2.6896  2.5287  1.2867  1.2867  1.0217  0.9906  0.9906  0.8910

 Free energy of the ion-electron system (eV)
  -Hartree energ DENC   =        -0.10287914
  -V(xc)+E(xc)   XCENC  =         0.00046049
  PAW double counting   =         0.00000000       -0.00000000
  entropy T*S    EENTRO =         0.00000000
  eigenvalues    EBANDS =        -0.10238560
  free energy    TOTEN  =        -0.20480425 eV

  energy without entropy =       -0.20480425

[...]

 k-point 244 :       0.5000    0.0000    0.5000
  band No.  band energies     occupation
      1      -0.0002      0.00000
      2      -0.0001      0.00000
      3      -0.0001      0.00000
      4      -0.0001      0.00000
      5      -0.0000      0.00000
      6      -0.0000      0.00000
      7      -0.0001      0.00000
      8      -0.0001      0.00000

------------------------ aborting loop because EDIFF is reached ----------------------------------------

 INTERNAL STRAIN TENSOR  FOR ION    1  DIRECTION 1   (eV/Angst):
    -0.00057  0.00000  0.00000
    -0.00000 -0.00068  0.00000
     0.00000  0.00000 -0.00068

 POSITION                   FORCE-CONSTANT FOR ION    1 DIRECTION 1 (eV/Angst/Angst)
      0.00000      0.00000      0.00000         0.026200      0.000000      0.000000
    total drift:                                0.026200      0.000000      0.000000

 BORN EFFECTIVE CHARGE FOR ION    1 DIRECTION 1 :   0.000  -0.000   0.000
                   rigid augmentation           :   1.165  -0.000   0.000
                   ionic contribution           :   8.000  -0.000   0.000
                   Berry contribution           :  -9.165  -0.000   0.000

  LATTYP: Found a face centered cubic cell.
 ALAT       =     5.7930284703

  Lattice vectors:

 A1 = (  -2.8965142352,   0.0000000000,   2.8965142352)
 A2 = (   0.0000000000,   2.8965142352,   2.8965142352)
 A3 = (  -2.8965142352,   2.8965142352,   0.0000000000)

Analysis of symmetry for initial positions (statically):
 Subroutine PRICEL returns:
 Original cell was already a primitive cell.

[...]

The static configuration has the point symmetry O_h .

Analysis of symmetry for dynamics (positions and initial velocities):
 Subroutine PRICEL returns:
 Original cell was already a primitive cell.

 Routine SETGRP: Setting up the symmetry group for a
 face centered cubic supercell.

 Subroutine GETGRP returns: Found 48 space group operations
 (whereof 48 operations were pure point group operations)
 out of a pool of 48 trial point group operations.

The dynamic configuration has the point symmetry O_h .

 Subroutine INISYM returns: Found 48 space group operations
 (whereof 48 operations are pure point group operations),
 and found     1 'primitive' translations

 MACROSCOPIC STATIC DIELECTRIC TENSOR (including local field effects in DFT)
           1.882676     0.000000    -0.000000
          -0.000000     1.882676    -0.000000
          -0.000000     0.000000     1.882676

 PIEZOELECTRIC TENSOR  for field in x, y, z        (e  Angst)
          XX          YY          ZZ          XY          YZ          ZX
  x     0.00004     0.00004     0.00004     0.00000     0.00000     0.00000
  y    -0.00005    -0.00003    -0.00005    -0.00000     0.00000    -0.00000
  z    -0.00004    -0.00004    -0.00004     0.00000     0.00000    -0.00000

 PIEZOELECTRIC TENSOR  for field in x, y, z        (C/m^2)
          XX          YY          ZZ          XY          YZ          ZX
  x     0.00000     0.00000     0.00000     0.00000     0.00000     0.00000
  y     0.00000     0.00000     0.00000     0.00000     0.00000     0.00000
  z     0.00000     0.00000     0.00000     0.00000     0.00000     0.00000

 BORN EFFECTIVE CHARGES (in e, cummulative output)
 ion    1
    1     0.00000     0.00000     0.00000
    2     0.00000     0.00000     0.00000
    3     0.00000     0.00000     0.00000

 INTERNAL STRAIN TENSOR FOR ION    1 for displacements in x,y,z  (eV/Angst):
          X           Y           Z          XY          YZ          ZX
  x     0.00000     0.00000     0.00000     0.00000     0.00000     0.00000
  y     0.00000     0.00000     0.00000     0.00000     0.00000     0.00000
  z     0.00000     0.00000     0.00000     0.00000     0.00000     0.00000

 SECOND DERIVATIVES (NOT SYMMETRIZED)
               1X          1Y          1Z
  1X     0.026200   -0.000000    0.000000
  1Y    -0.000000    0.026200   -0.000000
  1Z     0.000000   -0.000000    0.026200

 Eigenvectors and eigenvalues of the dynamical matrix

   1 f/i=    0.276426 THz     1.736835 2PiTHz    9.220576 cm-1     1.143206 meV
             X         Y         Z           dx          dy          dz
      0.000000  0.000000  0.000000     0.894427    0.447214    0.000000

[...]

   3 f/i=    0.276426 THz     1.736835 2PiTHz    9.220576 cm-1     1.143206 meV
             X         Y         Z           dx          dy          dz
      0.000000  0.000000  0.000000     0.000000    0.000000    1.000000

 MACROSCOPIC STATIC DIELECTRIC TENSOR IONIC CONTRIBUTION
           0.000000     0.000000     0.000000
           0.000000     0.000000     0.000000
           0.000000     0.000000     0.000000

 ELASTIC MODULI IONIC CONTR (kBar)
 Direction    XX          YY          ZZ          XY          YZ          ZX
 XX           0.0000      0.0000      0.0000      0.0000      0.0000      0.0000
 YY           0.0000      0.0000      0.0000      0.0000      0.0000      0.0000
 ZZ           0.0000      0.0000      0.0000      0.0000      0.0000      0.0000
 XY           0.0000      0.0000      0.0000      0.0000      0.0000      0.0000
 YZ           0.0000      0.0000      0.0000      0.0000      0.0000      0.0000
 ZX           0.0000      0.0000      0.0000      0.0000      0.0000      0.0000

 PIEZOELECTRIC TENSOR IONIC CONTR  for field in x, y, z        (C/m^2)
          XX          YY          ZZ          XY          YZ          ZX
  x     0.00000     0.00000     0.00000     0.00000     0.00000     0.00000
  y     0.00000     0.00000     0.00000     0.00000     0.00000     0.00000
  z     0.00000     0.00000     0.00000     0.00000     0.00000     0.00000