 vasp.5.4.4.18Apr17-6-g9f103f2a35 (build Aug 24 2017 11:22:49) complex

 executed on             LinuxIFC date 2023.12.25  13:07:05

 INCAR:
 POTCAR:    PAW_PBE Si 05Jan2001

 POTCAR:    PAW_PBE Si 05Jan2001
   VRHFIN =Si: s2p2

   TITEL  = PAW_PBE Si 05Jan2001
   POMASS =   28.085; ZVAL   =    4.000    mass and valenz
   ENMAX  =  245.345; ENMIN  =  184.009 eV

  PAW_PBE Si 05Jan2001                  :

 POSCAR: Si2
  positions in direct lattice
 exchange correlation table for  LEXCH =        8
   RHO(1)=    0.500       N(1)  =     2000
   RHO(2)=  100.500       N(2)  =     4000

 ion  position               nearest neighbor table
   1  0.250  0.250  0.250-   2 2.36   2 2.36   2 2.36   2 2.36
   2  0.500  0.500  0.500-   1 2.36   1 2.36   1 2.36   1 2.36

  LATTYP: Found a face centered cubic cell.
 ALAT       =     5.4437019548

  Lattice vectors:

 A1 = (  -2.7218509774,   0.0000000000,   2.7218509774)
 A2 = (   0.0000000000,   2.7218509774,   2.7218509774)
 A3 = (  -2.7218509774,   2.7218509774,   0.0000000000)

Analysis of symmetry for initial positions (statically):
 Subroutine PRICEL returns:
 Original cell was already a primitive cell.

 Routine SETGRP: Setting up the symmetry group for a
 face centered cubic supercell.

 Subroutine GETGRP returns: Found  4 space group operations
 (whereof  1 operations were pure point group operations)
 out of a pool of 48 trial point group operations.

The static configuration has the point symmetry C_1 .
 The point group associated with its full space group is C_2h.

Analysis of symmetry for dynamics (positions and initial velocities):
 Subroutine PRICEL returns:
 Original cell was already a primitive cell.

[...]

The dynamic configuration has the point symmetry C_1 .
 The point group associated with its full space group is C_2h.

 Subroutine INISYM returns: Found  4 space group operations
 (whereof  1 operations are pure point group operations),
 and found     1 'primitive' translations

 KPOINTS: pymatgen with grid density = 3000 / numb

Automatic generation of k-mesh.
Space group operators:
 irot       det(A)        alpha          n_x          n_y          n_z        tau_x        tau_y        tau_z
    1     1.000000     0.000000     1.000000     0.000000     0.000000     0.000000     0.000000     0.000000
    2    -1.000000     0.000000     1.000000     0.000000     0.000000     0.750000     0.750000     0.750000
    3     1.000000   180.000000    -0.707107     0.000000    -0.707107     0.750000     0.750000     0.750000
    4    -1.000000   180.000000    -0.707107     0.000000    -0.707107     0.000000     0.000000     1.000000

 Subroutine IBZKPT returns following result:

 Found    476 irreducible k-points:

 Following reciprocal coordinates:
            Coordinates               Weight
  0.000000  0.000000  0.000000      1.000000
  0.083333 -0.000000  0.000000      2.000000
  0.166667 -0.000000  0.000000      2.000000
  0.250000 -0.000000 -0.000000      2.000000
  0.333333 -0.000000 -0.000000      2.000000
  0.416667  0.000000  0.000000      2.000000
  0.500000 -0.000000 -0.000000      1.000000
 -0.000000  0.083333  0.000000      4.000000
  0.083333  0.083333  0.000000      4.000000
  0.166667  0.083333  0.000000      4.000000
  0.250000  0.083333  0.000000      4.000000
  0.333333  0.083333 -0.000000      4.000000
  0.416667  0.083333  0.000000      4.000000
  0.500000  0.083333  0.000000      4.000000
 -0.416667  0.083333  0.000000      4.000000
 -0.333333  0.083333 -0.000000      4.000000
 -0.250000  0.083333  0.000000      4.000000
 -0.166667  0.083333  0.000000      4.000000
 -0.083333  0.083333  0.000000      4.000000
 -0.000000  0.166667  0.000000      4.000000
  0.083333  0.166667  0.000000      4.000000
  0.166667  0.166667  0.000000      4.000000
  0.250000  0.166667  0.000000      4.000000
  0.333333  0.166667  0.000000      4.000000
  0.416667  0.166667  0.000000      4.000000
  0.500000  0.166667  0.000000      4.000000
 -0.416667  0.166667 -0.000000      4.000000
 -0.333333  0.166667  0.000000      4.000000
 -0.250000  0.166667 -0.000000      4.000000
 -0.166667  0.166667  0.000000      4.000000
 -0.083333  0.166667  0.000000      4.000000
  0.000000  0.250000  0.000000      4.000000
  0.083333  0.250000  0.000000      4.000000
  0.166667  0.250000 -0.000000      4.000000
  0.250000  0.250000  0.000000      4.000000
  0.333333  0.250000  0.000000      4.000000
  0.416667  0.250000  0.000000      4.000000
  0.500000  0.250000  0.000000      4.000000
 -0.416667  0.250000  0.000000      4.000000
 -0.333333  0.250000  0.000000      4.000000
 -0.250000  0.250000  0.000000      4.000000
 -0.166667  0.250000 -0.000000      4.000000
 -0.083333  0.250000  0.000000      4.000000
 -0.000000  0.333333  0.000000      4.000000
  0.083333  0.333333  0.000000      4.000000
  0.166667  0.333333  0.000000      4.000000
  0.250000  0.333333  0.000000      4.000000
  0.333333  0.333333  0.000000      4.000000
  0.416667  0.333333  0.000000      4.000000
  0.500000  0.333333 -0.000000      4.000000
 -0.416667  0.333333  0.000000      4.000000
 -0.333333  0.333333  0.000000      4.000000
 -0.250000  0.333333  0.000000      4.000000
 -0.166667  0.333333  0.000000      4.000000
 -0.083333  0.333333 -0.000000      4.000000
  0.000000  0.416667  0.000000      4.000000
  0.083333  0.416667 -0.000000      4.000000
  0.166667  0.416667  0.000000      4.000000
  0.250000  0.416667  0.000000      4.000000
  0.333333  0.416667  0.000000      4.000000
[...]
 -0.083333  0.500000  0.416667      4.000000
  0.000000 -0.416667  0.416667      2.000000
  0.083333 -0.416667  0.416667      4.000000
  0.166667 -0.416667  0.416667      4.000000
  0.250000 -0.416667  0.416667      4.000000
  0.333333 -0.416667  0.416667      4.000000
  0.416667 -0.416667  0.416667      4.000000
  0.500000 -0.416667  0.416667      2.000000
  0.000000  0.500000  0.500000      1.000000
  0.083333  0.500000  0.500000      2.000000
  0.166667  0.500000  0.500000      2.000000
  0.250000  0.500000  0.500000      2.000000
  0.333333  0.500000  0.500000      2.000000
  0.416667  0.500000  0.500000      2.000000
  0.500000  0.500000  0.500000      1.000000

 Following cartesian coordinates:
            Coordinates               Weight
  0.000000  0.000000  0.000000      1.000000
 -0.015308 -0.015308  0.015308      2.000000
 -0.030616 -0.030616  0.030616      2.000000
 -0.045925 -0.045925  0.045925      2.000000
 -0.061233 -0.061233  0.061233      2.000000
 -0.076541 -0.076541  0.076541      2.000000
 -0.091849 -0.091849  0.091849      1.000000
  0.015308  0.015308  0.015308      4.000000
  0.000000  0.000000  0.030616      4.000000
 -0.015308 -0.015308  0.045925      4.000000
 -0.030616 -0.030616  0.061233      4.000000
 -0.045925 -0.045925  0.076541      4.000000
 -0.061233 -0.061233  0.091849      4.000000
 -0.076541 -0.076541  0.107157      4.000000
  0.091849  0.091849 -0.061233      4.000000
  0.076541  0.076541 -0.045925      4.000000
  0.061233  0.061233 -0.030616      4.000000
  0.045925  0.045925 -0.015308      4.000000
  0.030616  0.030616  0.000000      4.000000
  0.030616  0.030616  0.030616      4.000000
  0.015308  0.015308  0.045925      4.000000
  0.000000  0.000000  0.061233      4.000000
 -0.015308 -0.015308  0.076541      4.000000
 -0.030616 -0.030616  0.091849      4.000000
 -0.045925 -0.045925  0.107157      4.000000
 -0.061233 -0.061233  0.122466      4.000000
  0.107157  0.107157 -0.045925      4.000000
  0.091849  0.091849 -0.030616      4.000000
  0.076541  0.076541 -0.015308      4.000000
  0.061233  0.061233  0.000000      4.000000
  0.045925  0.045925  0.015308      4.000000
  0.045925  0.045925  0.045925      4.000000
  0.030616  0.030616  0.061233      4.000000
  0.015308  0.015308  0.076541      4.000000
  0.000000  0.000000  0.091849      4.000000
 -0.015308 -0.015308  0.107157      4.000000
 -0.030616 -0.030616  0.122466      4.000000
 -0.045925 -0.045925  0.137774      4.000000
  0.122466  0.122466 -0.030616      4.000000
  0.107157  0.107157 -0.015308      4.000000
  0.091849  0.091849  0.000000      4.000000
  0.076541  0.076541  0.015308      4.000000
  0.061233  0.061233  0.030616      4.000000
  0.061233  0.061233  0.061233      4.000000
  0.045925  0.045925  0.076541      4.000000
  0.030616  0.030616  0.091849      4.000000
  0.015308  0.015308  0.107157      4.000000
 -0.000000 -0.000000  0.122466      4.000000
 -0.015308 -0.015308  0.137774      4.000000
 -0.030616 -0.030616  0.153082      4.000000
  0.137774  0.137774 -0.015308      4.000000
  0.122466  0.122466  0.000000      4.000000
  0.107157  0.107157  0.015308      4.000000
  0.091849  0.091849  0.030616      4.000000
  0.076541  0.076541  0.045925      4.000000
  0.076541  0.076541  0.076541      4.000000
  0.061233  0.061233  0.091849      4.000000
  0.045925  0.045925  0.107157      4.000000
  0.030616  0.030616  0.122466      4.000000
  0.015308  0.015308  0.137774      4.000000
[...]
  0.030616  0.183699 -0.000000      4.000000
 -0.153082  0.000000 -0.153082      2.000000
 -0.168390 -0.015308 -0.137774      4.000000
 -0.183699 -0.030616 -0.122466      4.000000
 -0.199007 -0.045925 -0.107157      4.000000
 -0.214315 -0.061233 -0.091849      4.000000
 -0.229623 -0.076541 -0.076541      4.000000
 -0.244931 -0.091849 -0.061233      2.000000
  0.000000  0.183699  0.000000      1.000000
 -0.015308  0.168390  0.015308      2.000000
 -0.030616  0.153082  0.030616      2.000000
 -0.045925  0.137774  0.045925      2.000000
 -0.061233  0.122466  0.061233      2.000000
 -0.076541  0.107157  0.076541      2.000000
 -0.091849  0.091849  0.091849      1.000000

 Subroutine IBZKPT_HF returns following result:

 Found   1728 k-points in 1st BZ
 the following   1728 k-points will be used (e.g. in the exchange kernel)
 Following reciprocal coordinates:   # in IRBZ
  0.000000  0.000000  0.000000    0.00057870   1 t-inv F
  0.083333 -0.000000  0.000000    0.00057870   2 t-inv F
  0.166667 -0.000000  0.000000    0.00057870   3 t-inv F
  0.250000 -0.000000 -0.000000    0.00057870   4 t-inv F
  0.333333 -0.000000 -0.000000    0.00057870   5 t-inv F
  0.416667  0.000000  0.000000    0.00057870   6 t-inv F
  0.500000 -0.000000 -0.000000    0.00057870   7 t-inv F
 -0.000000  0.083333  0.000000    0.00057870   8 t-inv F
  0.083333  0.083333  0.000000    0.00057870   9 t-inv F
  0.166667  0.083333  0.000000    0.00057870  10 t-inv F
  0.250000  0.083333  0.000000    0.00057870  11 t-inv F
  0.333333  0.083333 -0.000000    0.00057870  12 t-inv F
  0.416667  0.083333  0.000000    0.00057870  13 t-inv F
  0.500000  0.083333  0.000000    0.00057870  14 t-inv F
 -0.416667  0.083333  0.000000    0.00057870  15 t-inv F
 -0.333333  0.083333 -0.000000    0.00057870  16 t-inv F
 -0.250000  0.083333  0.000000    0.00057870  17 t-inv F
 -0.166667  0.083333  0.000000    0.00057870  18 t-inv F
 -0.083333  0.083333  0.000000    0.00057870  19 t-inv F
 -0.000000  0.166667  0.000000    0.00057870  20 t-inv F
  0.083333  0.166667  0.000000    0.00057870  21 t-inv F
  0.166667  0.166667  0.000000    0.00057870  22 t-inv F
  0.250000  0.166667  0.000000    0.00057870  23 t-inv F
[...]

 average (electrostatic) potential at core
  the test charge radii are     0.9892
  (the norm of the test charge is              1.0000)
       1 -83.3298       2 -83.3298

 E-fermi :   5.8029     XC(G=0):  -9.3810     alpha+bet :-11.8943

 k-point     1 :       0.0000    0.0000    0.0000
  band No.  band energies     occupation
      1      -6.1548      2.00000
      2       5.7533      2.00000
      3       5.7533      2.00000
      4       5.7533      2.00000
      5       8.3162      0.00000
      6       8.3162      0.00000
      7       8.3162      0.00000
      8       9.0445      0.00000

[...]

 soft charge-density along one line, spin component           1
         0         1         2         3         4         5         6         7         8         9
 total charge-density along one line

------------------------ aborting loop because EDIFF is reached ----------------------------------------

  FORCE on cell =-STRESS in cart. coord.  units (eV):
  Direction    XX          YY          ZZ          XY          YZ          ZX
  Alpha Z     3.33881     3.33881     3.33881
  Ewald     -75.99611   -75.99611   -75.99611     0.00001    -0.00001    -0.00002
  Hartree     5.00239     5.00239     5.00239     0.00000    -0.00000    -0.00000
  E(xc)     -25.32551   -25.32551   -25.32551    -0.00000     0.00000     0.00000
  Local     -29.31656   -29.31656   -29.31656    -0.00001     0.00001     0.00002
  n-local    78.87787    77.70178    76.52569    -0.81340    -0.81341    -0.00000
  augment   -11.65199   -11.65199   -11.65199     0.00000    -0.00000     0.00000
  Kinetic    56.91602    56.56272    56.20943    -0.73165    -0.73164     0.00000
  Fock        0.00000     0.00000     0.00000     0.00000     0.00000     0.00000
  Total       0.31553     0.31553     0.31553     0.00000    -0.00000    -0.00000
  in kB      12.53496    12.53496    12.53496     0.00004    -0.00004    -0.00013

 VOLUME and BASIS-vectors are now :
  energy-cutoff  :      520.00
  volume of cell :       40.33
      direct lattice vectors                 reciprocal lattice vectors
    -2.721850977  0.000000000  2.721850977    -0.183698521 -0.183698521  0.183698521
     0.000000000  2.721850977  2.721850977     0.183698521  0.183698521  0.183698521
    -2.721850977  2.721850977  0.000000000    -0.183698521  0.183698521 -0.183698521

  length of vectors
     3.849278567  3.849278567  3.849278567     0.318175172  0.318175172  0.318175172

 FORCES acting on ions
    electron-ion (+dipol)            ewald-force                    non-local-force                 convergence-correction
   0.219E-05 0.690E-05 -.218E-05   -.250E-05 -.750E-05 0.250E-05   -.113E-05 -.360E-05 0.113E-05   -.157E-07 -.179E-07 0.157E-07
   -.219E-05 -.690E-05 0.218E-05   0.250E-05 0.750E-05 -.250E-05   0.113E-05 0.360E-05 -.113E-05   0.157E-07 0.179E-07 -.157E-07
   -.101E-10 -.382E-10 -.344E-10   -.425E-15 -.156E-15 -.413E-15   -.265E-17 0.265E-17 0.312E-17   -.698E-15 -.362E-15 -.540E-14

 POSITION                                       TOTAL-FORCE (eV/Angst)
     -1.36093      1.36093      1.36093        -0.000001     -0.000004      0.000001
     -2.72185      2.72185      2.72185         0.000001      0.000004     -0.000001
    total drift:                               -0.000000     -0.000000     -0.000000

  FREE ENERGIE OF THE ION-ELECTRON SYSTEM (eV)
  free  energy   TOTEN  =       -10.84760412 eV

  energy  without entropy=      -10.84760412  energy(sigma->0) =      -10.84760412

 Found     2 degrees of freedom:

     directions for atom     1:  y
 Linear response reoptimize wavefunctions
 Linear response to external field (no local field effect), progress :
  Direction:   1
  LATTYP: Found a face centered cubic cell.
 ALAT       =     5.4437019548

[...]

The dynamic configuration has the point symmetry C_1 .

[...]

----------------------------------------- Iteration    1(   1)  ---------------------------------------

 Free energy of the ion-electron system (eV)
  -Hartree energ DENC   =         0.00000000
  -V(xc)+E(xc)   XCENC  =         0.00000000
  PAW double counting   =         0.00000000        0.00000000
  entropy T*S    EENTRO =         0.00000000
  eigenvalues    EBANDS =        -1.57868982
  free energy    TOTEN  =        -1.57868982 eV

  energy without entropy =       -1.57868982

[...]

 change of polarisation eV/A/(eV/A) component  1 :     3.233    -0.527    -0.000
 dielectric tensor                  component  1 :    15.506    -2.367    -0.002

 Linear response to external field (no local field effect), progress :
  Direction:   2
  LATTYP: Found a face centered cubic cell.
 ALAT       =     5.4437019548

[...]

 Linear response to external field (no local field effect), progress :
  Direction:   3
  LATTYP: Found a face centered cubic cell.
 ALAT       =     5.4437019548

[...]

 HEAD OF MICROSCOPIC STATIC DIELECTRIC TENSOR (INDEPENDENT PARTICLE, excluding Hartree and local field effects)
          13.484592    -0.001977    -0.001976
          -0.001978    13.484592     0.001978
          -0.001976     0.001977    13.484592

 Linear response to external field, progress :
  Direction:   1
  LATTYP: Found a face centered cubic cell.
 ALAT       =     5.4437019548

[...]

 PIEZOELECTRIC TENSOR FIELD DIRECTION 1  (e Angst)
    -0.00035  0.00046  0.00042           (  0.00000  0.00000 -0.00000)
     0.00046  0.00002 -0.00033           (  0.00000  0.00000 -0.00000)
     0.00042 -0.00033  0.00057           ( -0.00000 -0.00000 -0.00000)

 PIEZOELECTRIC TENSOR FIELD DIRECTION 1  (C/m^2)
    -0.00014  0.00018  0.00017
     0.00018  0.00001 -0.00013
     0.00017 -0.00013  0.00023

      POSITION         DIRECTION 1           BORN EFFECTIVE CHARGE    (rigid.aug.   ionic)
     -1.36093      1.36093      1.36093    -0.00011  0.00010  0.00014 (  0.22933  4.00000)
     -2.72185      2.72185      2.72185     0.00007 -0.00010 -0.00014 (  0.22933  4.00000)
    total drift (improves with k-points):  -0.00004 -0.00000 -0.00000

[...]

 Linear response to external field, progress :
  Direction:   3
  LATTYP: Found a face centered cubic cell.
 ALAT       =     5.4437019548

[...]

 change of polarisation eV/A/(eV/A) component  3 :    -0.000     0.000     2.648
 dielectric tensor                  component  3 :    -0.002     0.002    12.881

 PIEZOELECTRIC TENSOR FIELD DIRECTION 3  (e Angst)
    -0.00003 -0.00016 -0.00091           (  0.00000 -0.00000  0.00000)
    -0.00016 -0.00004  0.00088           ( -0.00000 -0.00000  0.00000)
    -0.00091  0.00088  0.00007           (  0.00000  0.00000  0.00000)

 PIEZOELECTRIC TENSOR FIELD DIRECTION 3  (C/m^2)
    -0.00001 -0.00006 -0.00036
    -0.00006 -0.00002  0.00035
    -0.00036  0.00035  0.00003

      POSITION         DIRECTION 3           BORN EFFECTIVE CHARGE    (rigid.aug.   ionic)
     -1.36093      1.36093      1.36093     0.00015 -0.00016 -0.00004 (  0.22933  4.00000)
     -2.72185      2.72185      2.72185    -0.00015  0.00016 -0.00000 (  0.22933  4.00000)
    total drift (improves with k-points):  -0.00000  0.00000 -0.00004

[...]

 MACROSCOPIC STATIC DIELECTRIC TENSOR (including local field effects in DFT)
          12.880761    -0.001978    -0.001976
          -0.001977    12.880761     0.001977
          -0.001976     0.001978    12.880761

 Linear response:
   Degrees of freedom DOF   =            2
 Linear response progress:
  Degree of freedom:   1/  2
  LATTYP: Found a face centered cubic cell.
 ALAT       =     5.4437019548

[...]

The dynamic configuration has the point symmetry C_1 .

[...]

 INTERNAL STRAIN TENSOR  FOR ION    1  DIRECTION 1   (eV/Angst):
     0.00297  0.13723  0.18684
    -0.13820 -0.00138 -9.31028
    -0.19101 -9.39556 -0.00221

 POSITION                   FORCE-CONSTANT FOR ION    1 DIRECTION 1 (eV/Angst/Angst)
     -1.36093      1.36093      1.36093       -13.390904     -0.000076     -0.000002
     -2.72185      2.72185      2.72185        13.390904      0.000076      0.000002
    total drift:                                0.000000      0.000000      0.000000

 BORN EFFECTIVE CHARGE FOR ION    1 DIRECTION 1 :   0.000  -0.000  -0.000
                   rigid augmentation           :   0.229   0.000  -0.000
                   ionic contribution           :   4.000   0.000  -0.000
                   Berry contribution           :  -4.229  -0.000  -0.000

 Linear response progress:
  Degree of freedom:   2/  2
  LATTYP: Found a face centered cubic cell.
 ALAT       =     5.4437019548

[...]

----------------------------------------- Iteration    5(  10)  ---------------------------------------

 Broyden mixing:
  rms(total) = 0.30297E-04    rms(broyden)= 0.30297E-04
  rms(prec ) = 0.44639E-04
  weight for this iteration     100.00

 eigenvalues of (default mixing * dielectric matrix)
  average eigenvalue GAMMA=   1.8941
  3.0719  2.6779  2.4379  2.0875  1.8389  0.9773  1.0174  1.0438

 Free energy of the ion-electron system (eV)
  -Hartree energ DENC   =        -0.00670298
  -V(xc)+E(xc)   XCENC  =         0.00003112
  PAW double counting   =         0.00640895       -0.00640985
  entropy T*S    EENTRO =        -0.00000000
  eigenvalues    EBANDS =        -0.01074127
  free energy    TOTEN  =        -0.01741402 eV

  energy without entropy =       -0.01741402

[...]

 k-point 476 :       0.5000    0.5000    0.5000
  band No.  band energies     occupation
      1       1.1440      0.00000
      2      -2.4326      0.00000
      3      -1.9764      0.00000
      4       3.1207      0.00000
      5       0.6808      0.00000
      6      -2.0983      0.00000
      7       3.9260      0.00000
      8       0.8591      0.00000

------------------------ aborting loop because EDIFF is reached ----------------------------------------

 INTERNAL STRAIN TENSOR  FOR ION    1  DIRECTION 2   (eV/Angst):
    -0.00082  0.22319 -9.35488
    -0.22280  0.00258  0.22280
    -9.35488 -0.22319 -0.00082

 POSITION                   FORCE-CONSTANT FOR ION    1 DIRECTION 2 (eV/Angst/Angst)
     -1.36093      1.36093      1.36093        -0.000023    -13.390996      0.000023
     -2.72185      2.72185      2.72185         0.000023     13.390996     -0.000023
    total drift:                                0.000000      0.000000     -0.000000

 BORN EFFECTIVE CHARGE FOR ION    1 DIRECTION 2 :  -0.000   0.000   0.000
                   rigid augmentation           :   0.000   0.229   0.000
                   ionic contribution           :   0.000   4.000   0.000
                   Berry contribution           :  -0.000  -4.229   0.000

  LATTYP: Found a face centered cubic cell.
 ALAT       =     5.4437019548

  Lattice vectors:

 A1 = (  -2.7218509774,   0.0000000000,   2.7218509774)
 A2 = (   0.0000000000,   2.7218509774,   2.7218509774)
 A3 = (  -2.7218509774,   2.7218509774,   0.0000000000)

Analysis of symmetry for initial positions (statically):
 Subroutine PRICEL returns:
 Original cell was already a primitive cell.

[...]

The static configuration has the point symmetry C_1 .
 The point group associated with its full space group is C_2h.

Analysis of symmetry for dynamics (positions and initial velocities):
 Subroutine PRICEL returns:
 Original cell was already a primitive cell.

 Routine SETGRP: Setting up the symmetry group for a
 face centered cubic supercell.

 Subroutine GETGRP returns: Found  4 space group operations
 (whereof  1 operations were pure point group operations)
 out of a pool of 48 trial point group operations.

The dynamic configuration has the point symmetry C_1 .
 The point group associated with its full space group is C_2h.

 Subroutine INISYM returns: Found  4 space group operations
 (whereof  1 operations are pure point group operations),
 and found     1 'primitive' translations

 MACROSCOPIC STATIC DIELECTRIC TENSOR (including local field effects in DFT)
          12.880761    -0.001978    -0.001976
          -0.001977    12.880761     0.001977
          -0.001976     0.001978    12.880761

 PIEZOELECTRIC TENSOR  for field in x, y, z        (e  Angst)
          XX          YY          ZZ          XY          YZ          ZX
  x    -0.00035     0.00002     0.00057     0.00046    -0.00033     0.00042
  y    -0.00049     0.00060    -0.00049    -0.00026     0.00026    -0.00013
  z    -0.00003    -0.00004     0.00007    -0.00016     0.00088    -0.00091

 PIEZOELECTRIC TENSOR  for field in x, y, z        (C/m^2)
          XX          YY          ZZ          XY          YZ          ZX
  x     0.00000     0.00000     0.00000     0.00000     0.00000     0.00000
  y     0.00000     0.00000     0.00000     0.00000     0.00000     0.00000
  z     0.00000     0.00000     0.00000     0.00000     0.00000     0.00000

 BORN EFFECTIVE CHARGES (in e, cummulative output)
 ion    1
    1    -0.00009     0.00010     0.00014
    2     0.00012    -0.00002    -0.00012
    3     0.00015    -0.00016    -0.00002
 ion    2
    1     0.00009    -0.00010    -0.00014
    2    -0.00012     0.00002     0.00012
    3    -0.00015     0.00016     0.00002

 INTERNAL STRAIN TENSOR FOR ION    1 for displacements in x,y,z  (eV/Angst):
          X           Y           Z          XY          YZ          ZX
  x     0.00297    -0.00138    -0.00221    -0.13820    -9.39556     0.18684
  y    -0.00082     0.00258    -0.00082    -0.22280    -0.22319    -9.35488
  z     0.00221     0.00138    -0.00297    -9.31028     0.13723     0.19101

 INTERNAL STRAIN TENSOR FOR ION    2 for displacements in x,y,z  (eV/Angst):
          X           Y           Z          XY          YZ          ZX
  x    -0.00297     0.00138     0.00221     0.13820     9.39556    -0.18684
  y     0.00082    -0.00258     0.00082     0.22280     0.22319     9.35488
  z    -0.00221    -0.00138     0.00297     9.31028    -0.13723    -0.19101

 SECOND DERIVATIVES (NOT SYMMETRIZED)
               1X          1Y          1Z          2X          2Y          2Z
  1X   -13.390904   -0.000076   -0.000002   13.390904    0.000076    0.000002
  1Y    -0.000023  -13.390996    0.000023    0.000023   13.390996   -0.000023
  1Z    -0.000002    0.000076  -13.390904    0.000002   -0.000076   13.390904
  2X    13.390904    0.000076    0.000002  -13.390904   -0.000076   -0.000002
  2Y     0.000023   13.390996   -0.000023   -0.000023  -13.390996    0.000023
  2Z     0.000002   -0.000076   13.390904   -0.000002    0.000076  -13.390904

 Eigenvectors and eigenvalues of the dynamical matrix

   1 f  =   15.266362 THz    95.921382 2PiTHz  509.231009 cm-1    63.136621 meV
             X         Y         Z           dx          dy          dz
     -1.360925  1.360926  1.360926     0.235797    0.623538   -0.235797
     -2.721851  2.721851  2.721851    -0.235797   -0.623538    0.235797

[...]

   4 f  =    0.000000 THz     0.000001 2PiTHz    0.000005 cm-1     0.000001 meV
             X         Y         Z           dx          dy          dz
     -1.360925  1.360926  1.360926    -0.649625   -0.279007   -0.011915
     -2.721851  2.721851  2.721851    -0.649625   -0.279007   -0.011915

   5 f/i=    0.000000 THz     0.000001 2PiTHz    0.000003 cm-1     0.000000 meV
             X         Y         Z           dx          dy          dz
     -1.360925  1.360926  1.360926     0.279027   -0.647256   -0.056601
     -2.721851  2.721851  2.721851     0.279027   -0.647256   -0.056601

   6 f/i=    0.000000 THz     0.000001 2PiTHz    0.000006 cm-1     0.000001 meV
             X         Y         Z           dx          dy          dz
     -1.360925  1.360926  1.360926    -0.011427    0.056701   -0.704737
     -2.721851  2.721851  2.721851    -0.011427    0.056701   -0.704737

 MACROSCOPIC STATIC DIELECTRIC TENSOR IONIC CONTRIBUTION
           0.000000    -0.000000    -0.000000
          -0.000000     0.000000     0.000000
          -0.000000     0.000000     0.000000

 ELASTIC MODULI IONIC CONTR (kBar)
 Direction    XX          YY          ZZ          XY          YZ          ZX
 XX          -0.0000      0.0000      0.0000      0.0617      0.0812     -0.0256
 YY           0.0000     -0.0000      0.0000      0.0392     -0.0373      0.0717
 ZZ           0.0000      0.0000     -0.0000     -0.0833     -0.0609     -0.0198
 XY           0.0617      0.0392     -0.0833   -257.3635     -0.2092     -0.8319
 YZ           0.0812     -0.0373     -0.0609     -0.2092   -262.0959     -1.0630
 ZX          -0.0256      0.0717     -0.0198     -0.8319     -1.0630   -259.8394

 PIEZOELECTRIC TENSOR IONIC CONTR  for field in x, y, z        (C/m^2)
          XX          YY          ZZ          XY          YZ          ZX
  x    -0.00000     0.00000    -0.00000    -0.00004     0.00003    -0.00003
  y     0.00000    -0.00000     0.00000     0.00003    -0.00003     0.00001
  z     0.00000    -0.00000    -0.00000     0.00001    -0.00004     0.00005