 vasp.5.4.4.18Apr17-6-g9f103f2a35 (build Aug 24 2017 11:22:49) complex

 executed on             LinuxIFC date 2023.12.25  13:07:09

 INCAR:
 POTCAR:    PAW_PBE K_sv 06Sep2000
 POTCAR:    PAW_PBE F 08Apr2002

 POTCAR:    PAW_PBE K_sv 06Sep2000
   VRHFIN =K:  3s3p4s

   TITEL  = PAW_PBE K_sv 06Sep2000
   POMASS =   39.098; ZVAL   =    9.000    mass and valenz
   ENMAX  =  259.264; ENMIN  =  194.448 eV

 POTCAR:    PAW_PBE F 08Apr2002
   VRHFIN =F: s2p5

   TITEL  = PAW_PBE F 08Apr2002
   POMASS =   18.998; ZVAL   =    7.000    mass and valenz
   ENMAX  =  400.000; ENMIN  =  300.000 eV

  PAW_PBE K_sv 06Sep2000                :
  PAW_PBE F 08Apr2002                   :

 POSCAR: K1 F1
  positions in direct lattice
 exchange correlation table for  LEXCH =        8
   RHO(1)=    0.500       N(1)  =     2000
   RHO(2)=  100.500       N(2)  =     4000

 ion  position               nearest neighbor table
   1  0.000  0.000  0.000-   2 2.65   2 2.65   2 2.65   2 2.65   2 2.65   2 2.65
   2  0.500  0.500  0.500-   1 2.65   1 2.65   1 2.65   1 2.65   1 2.65   1 2.65

  LATTYP: Found a face centered cubic cell.
 ALAT       =     5.3088264022

  Lattice vectors:

 A1 = (  -2.6544132011,   0.0000000000,   2.6544132011)
 A2 = (   0.0000000000,   2.6544132011,   2.6544132011)
 A3 = (  -2.6544132011,   2.6544132011,   0.0000000000)

Analysis of symmetry for initial positions (statically):
 Subroutine PRICEL returns:
 Original cell was already a primitive cell.

 Routine SETGRP: Setting up the symmetry group for a
 face centered cubic supercell.

 Subroutine GETGRP returns: Found  8 space group operations
 (whereof  8 operations were pure point group operations)
 out of a pool of 48 trial point group operations.

The static configuration has the point symmetry C_4v.

Analysis of symmetry for dynamics (positions and initial velocities):
 Subroutine PRICEL returns:
 Original cell was already a primitive cell.

[...]

The dynamic configuration has the point symmetry C_4v.

 Subroutine INISYM returns: Found  8 space group operations
 (whereof  8 operations are pure point group operations),
 and found     1 'primitive' translations

 KPOINTS: pymatgen with grid density = 3000 / numb

Automatic generation of k-mesh.
Space group operators:
 irot       det(A)        alpha          n_x          n_y          n_z        tau_x        tau_y        tau_z
    1     1.000000     0.000000     1.000000     0.000000     0.000000     0.000000     0.000000     0.000000
    2     1.000000    90.000000    -1.000000     0.000000     0.000000     0.000000     0.000000     0.000000
    3    -1.000000   180.000000     0.000000     0.000000    -1.000000     0.000000     0.000000     0.000000
    4    -1.000000   180.000000     0.000000     0.707107     0.707107     0.000000     0.000000     0.000000
    5    -1.000000   180.000000    -0.000000    -1.000000    -0.000000     0.000000     0.000000     0.000000
    6     1.000000    90.000000     1.000000     0.000000     0.000000     0.000000     0.000000     0.000000
    7     1.000000   180.000000     1.000000     0.000000     0.000000     0.000000     0.000000     0.000000
    8    -1.000000   180.000000    -0.000000    -0.707107     0.707107     0.000000     0.000000     0.000000

 Subroutine IBZKPT returns following result:

 Found    163 irreducible k-points:

 Following reciprocal coordinates:
            Coordinates               Weight
  0.000000  0.000000  0.000000      1.000000
  0.083333  0.000000  0.000000      8.000000
  0.166667  0.000000  0.000000      8.000000
  0.250000 -0.000000 -0.000000      8.000000
  0.333333  0.000000  0.000000      8.000000
  0.416667  0.000000  0.000000      8.000000
  0.500000 -0.000000 -0.000000      4.000000
  0.083333  0.083333 -0.000000      4.000000
  0.166667  0.083333  0.000000     16.000000
  0.250000  0.083333 -0.000000     16.000000
  0.333333  0.083333  0.000000     16.000000
  0.416667  0.083333  0.000000     16.000000
  0.500000  0.083333  0.000000     16.000000
 -0.416667  0.083333  0.000000     16.000000
 -0.333333  0.083333 -0.000000     16.000000
 -0.250000  0.083333 -0.000000     16.000000
 -0.166667  0.083333 -0.000000     16.000000
 -0.083333  0.083333 -0.000000      8.000000
  0.166667  0.166667 -0.000000      4.000000
  0.250000  0.166667  0.000000     16.000000
  0.333333  0.166667  0.000000     16.000000
  0.416667  0.166667  0.000000     16.000000
  0.500000  0.166667  0.000000     16.000000
 -0.416667  0.166667  0.000000     16.000000
 -0.333333  0.166667  0.000000     16.000000
 -0.250000  0.166667  0.000000     16.000000
 -0.166667  0.166667 -0.000000      8.000000
  0.250000  0.250000 -0.000000      4.000000
  0.333333  0.250000 -0.000000     16.000000
  0.416667  0.250000  0.000000     16.000000
  0.500000  0.250000 -0.000000     16.000000
 -0.416667  0.250000 -0.000000     16.000000
 -0.333333  0.250000  0.000000     16.000000
 -0.250000  0.250000  0.000000      8.000000
  0.333333  0.333333 -0.000000      4.000000
  0.416667  0.333333 -0.000000     16.000000
  0.500000  0.333333  0.000000     16.000000
 -0.416667  0.333333  0.000000     16.000000
 -0.333333  0.333333 -0.000000      8.000000
  0.416667  0.416667 -0.000000      4.000000
  0.500000  0.416667 -0.000000     16.000000
 -0.416667  0.416667 -0.000000      8.000000
  0.500000  0.500000 -0.000000      2.000000
  0.083333 -0.000000  0.083333      2.000000
  0.166667  0.000000  0.083333      8.000000
  0.250000  0.000000  0.083333      8.000000
  0.333333 -0.000000  0.083333      8.000000
  0.416667  0.000000  0.083333      8.000000
  0.500000  0.000000  0.083333      8.000000
 -0.416667  0.000000  0.083333      8.000000
 -0.333333 -0.000000  0.083333      8.000000
 -0.250000 -0.000000  0.083333      8.000000
 -0.166667  0.000000  0.083333      8.000000
 -0.083333 -0.000000  0.083333      4.000000
  0.250000  0.166667  0.083333      8.000000
  0.333333  0.166667  0.083333     16.000000
  0.416667  0.166667  0.083333     16.000000
  0.500000  0.166667  0.083333     16.000000
 -0.416667  0.166667  0.083333      8.000000
  0.166667  0.250000  0.083333      8.000000
[...]
  0.333333 -0.083333  0.250000      8.000000
  0.333333 -0.000000  0.333333      2.000000
  0.416667  0.000000  0.333333      8.000000
  0.500000 -0.000000  0.333333      8.000000
 -0.416667  0.000000  0.333333      8.000000
 -0.333333 -0.000000  0.333333      4.000000
  0.416667 -0.250000  0.333333      8.000000
  0.416667 -0.166667  0.333333     16.000000
  0.500000 -0.166667  0.333333      4.000000
  0.416667 -0.083333  0.333333      8.000000
  0.416667 -0.000000  0.416667      2.000000
  0.500000 -0.000000  0.416667      8.000000
 -0.416667 -0.000000  0.416667      4.000000
  0.500000 -0.083333  0.416667      4.000000
  0.500000 -0.000000  0.500000      1.000000

 Following cartesian coordinates:
            Coordinates               Weight
  0.000000  0.000000  0.000000      1.000000
 -0.015697 -0.015697  0.015697      8.000000
 -0.031394 -0.031394  0.031394      8.000000
 -0.047091 -0.047091  0.047091      8.000000
 -0.062789 -0.062789  0.062789      8.000000
 -0.078486 -0.078486  0.078486      8.000000
 -0.094183 -0.094183  0.094183      4.000000
  0.000000 -0.000000  0.031394      4.000000
 -0.015697 -0.015697  0.047091     16.000000
 -0.031394 -0.031394  0.062789     16.000000
 -0.047091 -0.047091  0.078486     16.000000
 -0.062789 -0.062789  0.094183     16.000000
 -0.078486 -0.078486  0.109880     16.000000
  0.094183  0.094183 -0.062789     16.000000
  0.078486  0.078486 -0.047091     16.000000
  0.062789  0.062789 -0.031394     16.000000
  0.047091  0.047091 -0.015697     16.000000
  0.031394  0.031394 -0.000000      8.000000
 -0.000000 -0.000000  0.062789      4.000000
 -0.015697 -0.015697  0.078486     16.000000
 -0.031394 -0.031394  0.094183     16.000000
 -0.047091 -0.047091  0.109880     16.000000
 -0.062789 -0.062789  0.125577     16.000000
  0.109880  0.109880 -0.047091     16.000000
  0.094183  0.094183 -0.031394     16.000000
  0.078486  0.078486 -0.015697     16.000000
  0.062789  0.062789  0.000000      8.000000
  0.000000  0.000000  0.094183      4.000000
 -0.015697 -0.015697  0.109880     16.000000
 -0.031394 -0.031394  0.125577     16.000000
 -0.047091 -0.047091  0.141274     16.000000
  0.125577  0.125577 -0.031394     16.000000
  0.109880  0.109880 -0.015697     16.000000
  0.094183  0.094183 -0.000000      8.000000
  0.000000 -0.000000  0.125577      4.000000
 -0.015697 -0.015697  0.141274     16.000000
 -0.031394 -0.031394  0.156971     16.000000
  0.141274  0.141274 -0.015697     16.000000
  0.125577  0.125577 -0.000000      8.000000
  0.000000  0.000000  0.156971      4.000000
 -0.015697 -0.015697  0.172668     16.000000
  0.156971  0.156971  0.000000      8.000000
  0.000000  0.000000  0.188366      2.000000
 -0.031394  0.000000  0.000000      2.000000
 -0.047091 -0.015697  0.015697      8.000000
 -0.062789 -0.031394  0.031394      8.000000
 -0.078486 -0.047091  0.047091      8.000000
 -0.094183 -0.062789  0.062789      8.000000
 -0.109880 -0.078486  0.078486      8.000000
  0.062789  0.094183 -0.094183      8.000000
  0.047091  0.078486 -0.078486      8.000000
  0.031394  0.062789 -0.062789      8.000000
  0.015697  0.047091 -0.047091      8.000000
 -0.000000  0.031394 -0.031394      4.000000
 -0.031394 -0.000000  0.062789      8.000000
 -0.047091 -0.015697  0.078486     16.000000
 -0.062789 -0.031394  0.094183     16.000000
 -0.078486 -0.047091  0.109880     16.000000
  0.094183  0.125577 -0.062789      8.000000
  0.000000  0.031394  0.062789      8.000000
[...]
 -0.125577 -0.031394  0.000000      8.000000
 -0.125577  0.000000  0.000000      2.000000
 -0.141274 -0.015697  0.015697      8.000000
 -0.156971 -0.031394  0.031394      8.000000
  0.015697  0.141274 -0.141274      8.000000
 -0.000000  0.125577 -0.125577      4.000000
 -0.188366 -0.062789 -0.031394      8.000000
 -0.172668 -0.047091 -0.015697     16.000000
 -0.188366 -0.062789  0.000000      4.000000
 -0.156971 -0.031394  0.000000      8.000000
 -0.156971  0.000000  0.000000      2.000000
 -0.172668 -0.015697  0.015697      8.000000
  0.000000  0.156971 -0.156971      4.000000
 -0.188366 -0.031394  0.000000      4.000000
 -0.188366 -0.000000  0.000000      1.000000

 Subroutine IBZKPT_HF returns following result:

 Found   1728 k-points in 1st BZ
 the following   1728 k-points will be used (e.g. in the exchange kernel)
 Following reciprocal coordinates:   # in IRBZ
  0.000000  0.000000  0.000000    0.00057870   1 t-inv F
  0.083333  0.000000  0.000000    0.00057870   2 t-inv F
  0.166667  0.000000  0.000000    0.00057870   3 t-inv F
  0.250000 -0.000000 -0.000000    0.00057870   4 t-inv F
  0.333333  0.000000  0.000000    0.00057870   5 t-inv F
  0.416667  0.000000  0.000000    0.00057870   6 t-inv F
  0.500000 -0.000000 -0.000000    0.00057870   7 t-inv F
  0.083333  0.083333 -0.000000    0.00057870   8 t-inv F
  0.166667  0.083333  0.000000    0.00057870   9 t-inv F
  0.250000  0.083333 -0.000000    0.00057870  10 t-inv F
  0.333333  0.083333  0.000000    0.00057870  11 t-inv F
  0.416667  0.083333  0.000000    0.00057870  12 t-inv F
  0.500000  0.083333  0.000000    0.00057870  13 t-inv F
[...]
      9       3.5188      0.00000
     10       7.9826      0.00000
     11       7.9826      0.00000
     12       7.9826      0.00000
     13       9.6809      0.00000
     14       9.6809      0.00000
     15      14.3197      0.00000
     16      21.9799      0.00000

[...]

 soft charge-density along one line, spin component           1
         0         1         2         3         4         5         6         7         8         9
 total charge-density along one line

------------------------ aborting loop because EDIFF is reached ----------------------------------------

  FORCE on cell =-STRESS in cart. coord.  units (eV):
  Direction    XX          YY          ZZ          XY          YZ          ZX
  Alpha Z    69.70825    69.70825    69.70825
  Ewald    -331.52087  -331.52087  -331.52087    -0.00000     0.00000     0.00000
  Hartree   132.69116   132.69116   132.69116    -0.00000     0.00000    -0.00000
  E(xc)     -77.99196   -77.99196   -77.99196    -0.00000     0.00000    -0.00000
  Local      -7.11324    -7.11324    -7.11324    -0.00006     0.00006    -0.00006
  n-local   -95.26592   -95.51063   -95.02121     0.48799    -0.07720    -0.19170
  augment    26.70204    26.70204    26.70204     0.00005    -0.00005     0.00005
  Kinetic   283.29721   283.66127   282.93315    -2.91362     0.43277     1.13114
  Fock        0.00000     0.00000     0.00000     0.00000     0.00000     0.00000
  Total       0.50666     0.50666     0.50666     0.00000     0.00000     0.00000
  in kB      21.70157    21.70158    21.70158     0.00000     0.00000     0.00000

 VOLUME and BASIS-vectors are now :
  energy-cutoff  :      520.00
  volume of cell :       37.41
      direct lattice vectors                 reciprocal lattice vectors
    -2.654413201  0.000000000  2.654413201    -0.188365549 -0.188365549  0.188365549
     0.000000000  2.654413201  2.654413201     0.188365549  0.188365549  0.188365549
    -2.654413201  2.654413201  0.000000000    -0.188365549  0.188365549 -0.188365549

  length of vectors
     3.753907149  3.753907149  3.753907149     0.326258701  0.326258701  0.326258701

 FORCES acting on ions
    electron-ion (+dipol)            ewald-force                    non-local-force                 convergence-correction
   -.212E-04 -.453E-13 -.262E-13   0.207E-04 -.735E-15 0.164E-14   0.108E-05 0.999E-23 0.845E-23   -.171E-06 -.298E-11 -.300E-11
   0.200E-04 -.671E-11 -.862E-11   -.207E-04 0.119E-14 -.170E-14   0.832E-06 0.102E-23 -.362E-23   -.479E-06 0.495E-11 0.497E-11
   -.125E-05 -.676E-11 -.864E-11   0.164E-15 0.455E-15 -.677E-16   0.191E-05 0.110E-22 0.483E-23   -.650E-06 0.197E-11 0.197E-11

 POSITION                                       TOTAL-FORCE (eV/Angst)
      0.00000      0.00000      0.00000         0.000000      0.000000     -0.000000
     -2.65441      2.65441      2.65441        -0.000000     -0.000000      0.000000
    total drift:                                0.000000     -0.000000     -0.000000

  FREE ENERGIE OF THE ION-ELECTRON SYSTEM (eV)
  free  energy   TOTEN  =        -8.28091412 eV

  energy  without entropy=       -8.28091412  energy(sigma->0) =       -8.28091412

 Found     4 degrees of freedom:

     directions for atom     1:  y
     directions for atom     2:  y
 Linear response reoptimize wavefunctions
 Linear response to external field (no local field effect), progress :
  Direction:   1
  LATTYP: Found a face centered cubic cell.
 ALAT       =     5.3088264022

[...]

----------------------------------------- Iteration    1(   1)  ---------------------------------------

 Free energy of the ion-electron system (eV)
  -Hartree energ DENC   =         0.00000000
  -V(xc)+E(xc)   XCENC  =         0.00000000
  PAW double counting   =         0.00000000        0.00000000
  entropy T*S    EENTRO =         0.00000000
  eigenvalues    EBANDS =        -0.11202027
  free energy    TOTEN  =        -0.11202027 eV

  energy without entropy =       -0.11202027

[...]

 change of polarisation eV/A/(eV/A) component  1 :     0.231    -0.015     0.006
 dielectric tensor                  component  1 :     2.117    -0.075     0.030

 Linear response to external field (no local field effect), progress :
  Direction:   2
  LATTYP: Found a face centered cubic cell.
 ALAT       =     5.3088264022

[...]

The dynamic configuration has the point symmetry C_1h.

[...]

 Linear response to external field (no local field effect), progress :
  Direction:   3
  LATTYP: Found a face centered cubic cell.
 ALAT       =     5.3088264022

[...]

 HEAD OF MICROSCOPIC STATIC DIELECTRIC TENSOR (INDEPENDENT PARTICLE, excluding Hartree and local field effects)
           2.116594     0.000000    -0.000000
           0.000000     2.116596     0.000000
          -0.000000     0.000000     2.116596

 Linear response to external field, progress :
  Direction:   1
  LATTYP: Found a face centered cubic cell.
 ALAT       =     5.3088264022

[...]

 PIEZOELECTRIC TENSOR FIELD DIRECTION 1  (e Angst)
     0.00001 -0.00000  0.00000           ( -0.00000  0.00000  0.00000)
     0.00000  0.00001  0.00000           (  0.00000  0.00000  0.00000)
     0.00000 -0.00000  0.00001           (  0.00000  0.00000  0.00000)

 PIEZOELECTRIC TENSOR FIELD DIRECTION 1  (C/m^2)
     0.00000 -0.00000  0.00000
     0.00000  0.00001  0.00000
     0.00000 -0.00000  0.00001

      POSITION         DIRECTION 1           BORN EFFECTIVE CHARGE    (rigid.aug.   ionic)
      0.00000      0.00000      0.00000     1.13893 -0.00000  0.00000 ( -1.48855  9.00000)
     -2.65441      2.65441      2.65441    -1.13890  0.00000  0.00000 ( -1.27977  7.00000)
    total drift (improves with k-points):   0.00003 -0.00000  0.00000

[...]

 Linear response to external field, progress :
  Direction:   3
  LATTYP: Found a face centered cubic cell.
 ALAT       =     5.3088264022

[...]

 change of polarisation eV/A/(eV/A) component  3 :    -0.000     0.000     0.206
 dielectric tensor                  component  3 :    -0.000     0.001     1.995

 PIEZOELECTRIC TENSOR FIELD DIRECTION 3  (e Angst)
    -0.00000  0.00000 -0.00002           ( -0.00000  0.00000  0.00000)
     0.00000 -0.00000 -0.00000           (  0.00000 -0.00000 -0.00000)
    -0.00002 -0.00000 -0.00000           (  0.00000 -0.00000 -0.00000)

 PIEZOELECTRIC TENSOR FIELD DIRECTION 3  (C/m^2)
    -0.00000  0.00000 -0.00001
     0.00000 -0.00000 -0.00000
    -0.00001 -0.00000 -0.00000

      POSITION         DIRECTION 3           BORN EFFECTIVE CHARGE    (rigid.aug.   ionic)
      0.00000      0.00000      0.00000    -0.00000  0.00000  1.13893 ( -1.48855  9.00000)
     -2.65441      2.65441      2.65441    -0.00000 -0.00000 -1.13890 ( -1.27977  7.00000)
    total drift (improves with k-points):  -0.00000  0.00000  0.00003

[...]

 MACROSCOPIC STATIC DIELECTRIC TENSOR (including local field effects in DFT)
           1.995412     0.000000    -0.000000
           0.000000     1.995415     0.000000
          -0.000000     0.000000     1.995415

 Linear response:
   Degrees of freedom DOF   =            4
 Linear response progress:
  Degree of freedom:   1/  4
  LATTYP: Found a face centered cubic cell.
 ALAT       =     5.3088264022

[...]

 INTERNAL STRAIN TENSOR  FOR ION    1  DIRECTION 1   (eV/Angst):
    -0.00204  0.00000  0.00000
    -0.00000  0.00065  0.00000
     0.00000 -0.00000  0.00065

 POSITION                   FORCE-CONSTANT FOR ION    1 DIRECTION 1 (eV/Angst/Angst)
      0.00000      0.00000      0.00000        -1.819180      0.000000     -0.000000
     -2.65441      2.65441      2.65441         1.819180     -0.000000      0.000000
    total drift:                                0.000000      0.000000      0.000000

 BORN EFFECTIVE CHARGE FOR ION    1 DIRECTION 1 :   1.139   0.000  -0.000
                   rigid augmentation           :  -1.489   0.000  -0.000
                   ionic contribution           :   9.000   0.000  -0.000
                   Berry contribution           :  -6.373  -0.000   0.000

 Linear response progress:
  Degree of freedom:   2/  4
  LATTYP: Found a face centered cubic cell.
 ALAT       =     5.3088264022

[...]

 Linear response progress:
  Degree of freedom:   4/  4
  LATTYP: Found a face centered cubic cell.
 ALAT       =     5.3088264022

[...]

The dynamic configuration has the point symmetry C_1h.

[...]

----------------------------------------- Iteration    8(  12)  ---------------------------------------

 Broyden mixing:
  rms(total) = 0.16512E-04    rms(broyden)= 0.16512E-04
  rms(prec ) = 0.17499E-04
  weight for this iteration     100.00

 eigenvalues of (default mixing * dielectric matrix)
  average eigenvalue GAMMA=   1.8439
  3.3147  2.9788  2.6225  2.2969  2.0241  1.4825  0.9990  0.9990  0.9184  0.8033

 Free energy of the ion-electron system (eV)
  -Hartree energ DENC   =        -0.18489982
  -V(xc)+E(xc)   XCENC  =         0.00060493
  PAW double counting   =         0.00002187       -0.00002230
  entropy T*S    EENTRO =        -0.00000000
  eigenvalues    EBANDS =        -0.35113978
  free energy    TOTEN  =        -0.53543510 eV

  energy without entropy =       -0.53543510

[...]

 k-point 476 :      -0.0000   -0.5000   -0.5000
  band No.  band energies     occupation
      1      -0.0000      0.00000
      2       0.0002      0.00000
      3      -0.0000      0.00000
      4      -0.0000      0.00000
      5      -0.0000      0.00000
      6       0.0002      0.00000
      7       0.0001      0.00000
      8       0.0002      0.00000
      9      -0.0000      0.00000
     10      -0.0000      0.00000
     11       0.0001      0.00000
     12      -0.0000      0.00000
     13      -0.0000      0.00000
     14      -0.0000      0.00000
     15      -0.0000      0.00000
     16       0.0001      0.00000

------------------------ aborting loop because EDIFF is reached ----------------------------------------

 INTERNAL STRAIN TENSOR  FOR ION    2  DIRECTION 2   (eV/Angst):
     0.00068 -0.00153  0.00000
    -0.00152 -0.00092  0.00000
     0.00000  0.00000  0.00031

 POSITION                   FORCE-CONSTANT FOR ION    2 DIRECTION 2 (eV/Angst/Angst)
      0.00000      0.00000      0.00000        -0.000741      1.853296      0.000000
     -2.65441      2.65441      2.65441         0.000741     -1.853296     -0.000000
    total drift:                                0.000000      0.000000      0.000000

 BORN EFFECTIVE CHARGE FOR ION    2 DIRECTION 2 :  -0.000  -1.139  -0.000
                   rigid augmentation           :   0.000  -1.280   0.000
                   ionic contribution           :   0.000   7.000   0.000
                   Berry contribution           :  -0.000  -6.859  -0.000

  LATTYP: Found a face centered cubic cell.
 ALAT       =     5.3088264022

  Lattice vectors:

 A1 = (  -2.6544132011,   0.0000000000,   2.6544132011)
 A2 = (   0.0000000000,   2.6544132011,   2.6544132011)
 A3 = (  -2.6544132011,   2.6544132011,   0.0000000000)

Analysis of symmetry for initial positions (statically):
 Subroutine PRICEL returns:
 Original cell was already a primitive cell.

[...]

The static configuration has the point symmetry C_4v.

Analysis of symmetry for dynamics (positions and initial velocities):
 Subroutine PRICEL returns:
 Original cell was already a primitive cell.

 Routine SETGRP: Setting up the symmetry group for a
 face centered cubic supercell.

 Subroutine GETGRP returns: Found  8 space group operations
 (whereof  8 operations were pure point group operations)
 out of a pool of 48 trial point group operations.

The dynamic configuration has the point symmetry C_4v.

 Subroutine INISYM returns: Found  8 space group operations
 (whereof  8 operations are pure point group operations),
 and found     1 'primitive' translations

 MACROSCOPIC STATIC DIELECTRIC TENSOR (including local field effects in DFT)
           1.995412     0.000000    -0.000000
           0.000000     1.995415     0.000000
          -0.000000     0.000000     1.995415

 PIEZOELECTRIC TENSOR  for field in x, y, z        (e  Angst)
          XX          YY          ZZ          XY          YZ          ZX
  x     0.00001     0.00001     0.00001     0.00000    -0.00000     0.00000
  y    -0.00002    -0.00001    -0.00001     0.00012     0.00000     0.00000
  z    -0.00000    -0.00000    -0.00000     0.00000    -0.00000    -0.00002

 PIEZOELECTRIC TENSOR  for field in x, y, z        (C/m^2)
          XX          YY          ZZ          XY          YZ          ZX
  x     0.00000     0.00001     0.00001     0.00000     0.00000    -0.00000
  y     0.00000     0.00000     0.00000     0.00002    -0.00000     0.00000
  z    -0.00000     0.00000    -0.00000     0.00000     0.00000     0.00002

 BORN EFFECTIVE CHARGES (in e, cummulative output)
 ion    1
    1     1.13891    -0.00000    -0.00000
    2     0.00000     1.13893    -0.00000
    3     0.00000     0.00000     1.13892
 ion    2
    1    -1.13891     0.00000     0.00000
    2    -0.00000    -1.13893     0.00000
    3    -0.00000    -0.00000    -1.13892

 INTERNAL STRAIN TENSOR FOR ION    1 for displacements in x,y,z  (eV/Angst):
          X           Y           Z          XY          YZ          ZX
  x    -0.00204     0.00065     0.00065    -0.00000     0.00000     0.00000
  y    -0.00000     0.00000     0.00000    -0.00033     0.00000    -0.00000
  z     0.00000    -0.00000     0.00000    -0.00000    -0.00000    -0.00032

 INTERNAL STRAIN TENSOR FOR ION    2 for displacements in x,y,z  (eV/Angst):
          X           Y           Z          XY          YZ          ZX
  x     0.00210    -0.00106    -0.00106    -0.00000    -0.00000     0.00000
  y     0.00000     0.00000    -0.00000    -0.00152     0.00000    -0.00000
  z     0.00000     0.00000     0.00000    -0.00000    -0.00000    -0.00153

 SECOND DERIVATIVES (NOT SYMMETRIZED)
               1X          1Y          1Z          2X          2Y          2Z
  1X    -1.819180   -0.000000    0.000000    1.819180    0.000000   -0.000000
  1Y    -0.000000   -1.819189   -0.000000    0.000000    1.819189    0.000000
  1Z     0.000000   -0.000000   -1.819189   -0.000000    0.000000    1.819189
  2X     1.853307    0.000000   -0.000000   -1.853307   -0.000000    0.000000
  2Y     0.000000    1.853296    0.000000   -0.000000   -1.853296   -0.000000
  2Z    -0.000000    0.000000    1.853296    0.000000   -0.000000   -1.853296

 Eigenvectors and eigenvalues of the dynamical matrix

   1 f  =    5.934155 THz    37.285394 2PiTHz  197.942088 cm-1    24.541700 meV
             X         Y         Z           dx          dy          dz
      0.000000  0.000000  0.000000     0.568278   -0.000000    0.000000
     -2.654413  2.654413  2.654413    -0.822836    0.000000    0.000000

[...]

   3 f  =    5.934147 THz    37.285348 2PiTHz  197.941844 cm-1    24.541670 meV
             X         Y         Z           dx          dy          dz
      0.000000  0.000000  0.000000     0.000000    0.568280   -0.000000
     -2.654413  2.654413  2.654413    -0.000000   -0.822835    0.000000

   4 f/i=    0.025771 THz     0.161921 2PiTHz    0.859612 cm-1     0.106578 meV
             X         Y         Z           dx          dy          dz
      0.000000  0.000000  0.000000     0.000000    0.822835    0.000000
     -2.654413  2.654413  2.654413     0.000000    0.568280    0.000000

[...]

   6 f/i=    0.025785 THz     0.162015 2PiTHz    0.860110 cm-1     0.106640 meV
             X         Y         Z           dx          dy          dz
      0.000000  0.000000  0.000000     0.822836   -0.000000   -0.000000
     -2.654413  2.654413  2.654413     0.568278   -0.000000    0.000000

 MACROSCOPIC STATIC DIELECTRIC TENSOR IONIC CONTRIBUTION
           3.417148     0.000000     0.000002
           0.000000     3.417225     0.000000
           0.000002     0.000000     3.417153

 ELASTIC MODULI IONIC CONTR (kBar)
 Direction    XX          YY          ZZ          XY          YZ          ZX
 XX          -0.0001      0.0000      0.0000     -0.0000      0.0000     -0.0000
 YY           0.0000     -0.0000     -0.0000      0.0000     -0.0000      0.0000
 ZZ           0.0000     -0.0000     -0.0000      0.0000     -0.0000      0.0000
 XY          -0.0000      0.0000      0.0000     -0.0000      0.0000     -0.0000
 YZ           0.0000     -0.0000     -0.0000      0.0000     -0.0000     -0.0000
 ZX          -0.0000      0.0000      0.0000     -0.0000     -0.0000     -0.0000

 PIEZOELECTRIC TENSOR IONIC CONTR  for field in x, y, z        (C/m^2)
          XX          YY          ZZ          XY          YZ          ZX
  x    -0.00055     0.00023     0.00023    -0.00000     0.00000    -0.00000
  y    -0.00000     0.00000     0.00000     0.00016    -0.00000     0.00000
  z    -0.00000     0.00000     0.00000     0.00000     0.00000     0.00016