 vasp.5.4.4.18Apr17-6-g9f103f2a35 (build Aug 24 2017 11:22:49) complex

 executed on             LinuxIFC date 2023.12.25  13:07:47

 INCAR:
 POTCAR:    PAW_PBE In_d 06Sep2000
 POTCAR:    PAW_PBE I 08Apr2002

 POTCAR:    PAW_PBE In_d 06Sep2000
   VRHFIN =In: s2p1

   TITEL  = PAW_PBE In_d 06Sep2000
   POMASS =  114.820; ZVAL   =   13.000    mass and valenz
   ENMAX  =  239.211; ENMIN  =  179.409 eV

 POTCAR:    PAW_PBE I 08Apr2002
   VRHFIN =I : s2p5

   TITEL  = PAW_PBE I 08Apr2002
   POMASS =  126.904; ZVAL   =    7.000    mass and valenz
   ENMAX  =  175.647; ENMIN  =  131.735 eV

  PAW_PBE In_d 06Sep2000                :
  PAW_PBE I 08Apr2002                   :

 POSCAR: In2 I2
  positions in direct lattice
 exchange correlation table for  LEXCH =        8
   RHO(1)=    0.500       N(1)  =     2000
   RHO(2)=  100.500       N(2)  =     4000

 ion  position               nearest neighbor table
   1  0.603  0.603  0.750-   3 3.22   4 3.47   4 3.47   4 3.47   4 3.47   2 3.59   2 3.59
   2  0.397  0.397  0.250-   4 3.22   3 3.47   3 3.47   3 3.47   3 3.47   1 3.59   1 3.59
   3  0.854  0.854  0.750-   1 3.22   2 3.47   2 3.47   2 3.47   2 3.47
   4  0.146  0.146  0.250-   2 3.22   1 3.47   1 3.47   1 3.47   1 3.47

  LATTYP: Found a base centered orthorhombic cell.
 ALAT       =     4.8602433554
 B/A-ratio  =     2.6470409334
 C/A-ratio  =     0.9945255073

  Lattice vectors:

 A1 = (   2.4301216777,   6.4326315541,   0.0000000000)
 A2 = (   2.4301216777,  -6.4326315541,   0.0000000000)
 A3 = (   0.0000000000,   0.0000000000,  -4.8336359887)

Analysis of symmetry for initial positions (statically):
 Subroutine PRICEL returns:
 Original cell was already a primitive cell.

 Routine SETGRP: Setting up the symmetry group for a
 base centered orthorhombic supercell.

 Subroutine GETGRP returns: Found  2 space group operations
 (whereof  1 operations were pure point group operations)
 out of a pool of  8 trial point group operations.

The static configuration has the point symmetry C_1 .
 The point group associated with its full space group is S_2 .

Analysis of symmetry for dynamics (positions and initial velocities):
 Subroutine PRICEL returns:
 Original cell was already a primitive cell.

[...]

The dynamic configuration has the point symmetry C_1 .
 The point group associated with its full space group is S_2 .

 Subroutine INISYM returns: Found  2 space group operations
 (whereof  1 operations are pure point group operations),
 and found     1 'primitive' translations

 KPOINTS: pymatgen with grid density = 3000 / numb

Automatic generation of k-mesh.
Space group operators:
 irot       det(A)        alpha          n_x          n_y          n_z        tau_x        tau_y        tau_z
    1     1.000000     0.000000     1.000000     0.000000     0.000000     0.000000     0.000000     0.000000
    2    -1.000000     0.000000     1.000000     0.000000     0.000000     0.000000    -0.000000    -1.000000

 Subroutine IBZKPT returns following result:

 Found    388 irreducible k-points:

 Following reciprocal coordinates:
            Coordinates               Weight
  0.000000  0.000000  0.000000      1.000000
  0.125000  0.000000  0.000000      2.000000
  0.250000  0.000000  0.000000      2.000000
  0.375000  0.000000  0.000000      2.000000
  0.500000  0.000000  0.000000      1.000000
  0.000000  0.125000  0.000000      2.000000
  0.125000  0.125000  0.000000      2.000000
  0.250000  0.125000  0.000000      2.000000
  0.375000  0.125000  0.000000      2.000000
  0.500000  0.125000  0.000000      2.000000
 -0.375000  0.125000  0.000000      2.000000
 -0.250000  0.125000  0.000000      2.000000
 -0.125000  0.125000  0.000000      2.000000
  0.000000  0.250000  0.000000      2.000000
  0.125000  0.250000  0.000000      2.000000
  0.250000  0.250000  0.000000      2.000000
  0.375000  0.250000  0.000000      2.000000
  0.500000  0.250000  0.000000      2.000000
 -0.375000  0.250000  0.000000      2.000000
 -0.250000  0.250000  0.000000      2.000000
 -0.125000  0.250000  0.000000      2.000000
  0.000000  0.375000  0.000000      2.000000
  0.125000  0.375000  0.000000      2.000000
  0.250000  0.375000  0.000000      2.000000
  0.375000  0.375000  0.000000      2.000000
  0.500000  0.375000  0.000000      2.000000
 -0.375000  0.375000  0.000000      2.000000
 -0.250000  0.375000  0.000000      2.000000
 -0.125000  0.375000  0.000000      2.000000
  0.000000  0.500000  0.000000      1.000000
  0.125000  0.500000  0.000000      2.000000
  0.250000  0.500000  0.000000      2.000000
  0.375000  0.500000  0.000000      2.000000
  0.500000  0.500000  0.000000      1.000000
  0.000000  0.000000  0.083333      2.000000
  0.125000  0.000000  0.083333      2.000000
  0.250000  0.000000  0.083333      2.000000
  0.375000  0.000000  0.083333      2.000000
  0.500000  0.000000  0.083333      2.000000
 -0.375000 -0.000000  0.083333      2.000000
 -0.250000 -0.000000  0.083333      2.000000
 -0.125000 -0.000000  0.083333      2.000000
  0.000000  0.125000  0.083333      2.000000
  0.125000  0.125000  0.083333      2.000000
  0.250000  0.125000  0.083333      2.000000
  0.375000  0.125000  0.083333      2.000000
  0.500000  0.125000  0.083333      2.000000
 -0.375000  0.125000  0.083333      2.000000
 -0.250000  0.125000  0.083333      2.000000
 -0.125000  0.125000  0.083333      2.000000
  0.000000  0.250000  0.083333      2.000000
  0.125000  0.250000  0.083333      2.000000
  0.250000  0.250000  0.083333      2.000000
  0.375000  0.250000  0.083333      2.000000
  0.500000  0.250000  0.083333      2.000000
 -0.375000  0.250000  0.083333      2.000000
 -0.250000  0.250000  0.083333      2.000000
 -0.125000  0.250000  0.083333      2.000000
  0.000000  0.375000  0.083333      2.000000
  0.125000  0.375000  0.083333      2.000000
[...]
 -0.250000  0.250000  0.500000      2.000000
 -0.125000  0.250000  0.500000      2.000000
  0.000000  0.375000  0.500000      2.000000
  0.125000  0.375000  0.500000      2.000000
  0.250000  0.375000  0.500000      2.000000
  0.375000  0.375000  0.500000      2.000000
  0.500000  0.375000  0.500000      2.000000
 -0.375000  0.375000  0.500000      2.000000
 -0.250000  0.375000  0.500000      2.000000
 -0.125000  0.375000  0.500000      2.000000
  0.000000  0.500000  0.500000      1.000000
  0.125000  0.500000  0.500000      2.000000
  0.250000  0.500000  0.500000      2.000000
  0.375000  0.500000  0.500000      2.000000
  0.500000  0.500000  0.500000      1.000000

 Following cartesian coordinates:
            Coordinates               Weight
  0.000000  0.000000  0.000000      1.000000
  0.025719  0.009716  0.000000      2.000000
  0.051438  0.019432  0.000000      2.000000
  0.077157  0.029148  0.000000      2.000000
  0.102876  0.038864  0.000000      1.000000
 -0.025719  0.009716  0.000000      2.000000
  0.000000  0.019432  0.000000      2.000000
  0.025719  0.029148  0.000000      2.000000
  0.051438  0.038864  0.000000      2.000000
  0.077157  0.048580  0.000000      2.000000
 -0.102876 -0.019432  0.000000      2.000000
 -0.077157 -0.009716  0.000000      2.000000
 -0.051438  0.000000  0.000000      2.000000
 -0.051438  0.019432  0.000000      2.000000
 -0.025719  0.029148  0.000000      2.000000
  0.000000  0.038864  0.000000      2.000000
  0.025719  0.048580  0.000000      2.000000
  0.051438  0.058297  0.000000      2.000000
 -0.128594 -0.009716  0.000000      2.000000
 -0.102876  0.000000  0.000000      2.000000
 -0.077157  0.009716  0.000000      2.000000
 -0.077157  0.029148  0.000000      2.000000
 -0.051438  0.038864  0.000000      2.000000
 -0.025719  0.048580  0.000000      2.000000
  0.000000  0.058297  0.000000      2.000000
  0.025719  0.068013  0.000000      2.000000
 -0.154313  0.000000  0.000000      2.000000
 -0.128594  0.009716  0.000000      2.000000
 -0.102876  0.019432  0.000000      2.000000
 -0.102876  0.038864  0.000000      1.000000
 -0.077157  0.048580  0.000000      2.000000
 -0.051438  0.058297  0.000000      2.000000
 -0.025719  0.068013  0.000000      2.000000
  0.000000  0.077729  0.000000      1.000000
  0.000000  0.000000  0.017240      2.000000
  0.025719  0.009716  0.017240      2.000000
  0.051438  0.019432  0.017240      2.000000
  0.077157  0.029148  0.017240      2.000000
  0.102876  0.038864  0.017240      2.000000
 -0.077157 -0.029148  0.017240      2.000000
 -0.051438 -0.019432  0.017240      2.000000
 -0.025719 -0.009716  0.017240      2.000000
 -0.025719  0.009716  0.017240      2.000000
  0.000000  0.019432  0.017240      2.000000
  0.025719  0.029148  0.017240      2.000000
  0.051438  0.038864  0.017240      2.000000
  0.077157  0.048580  0.017240      2.000000
 -0.102876 -0.019432  0.017240      2.000000
 -0.077157 -0.009716  0.017240      2.000000
 -0.051438  0.000000  0.017240      2.000000
 -0.051438  0.019432  0.017240      2.000000
 -0.025719  0.029148  0.017240      2.000000
  0.000000  0.038864  0.017240      2.000000
  0.025719  0.048580  0.017240      2.000000
  0.051438  0.058297  0.017240      2.000000
 -0.128594 -0.009716  0.017240      2.000000
 -0.102876  0.000000  0.017240      2.000000
 -0.077157  0.009716  0.017240      2.000000
 -0.077157  0.029148  0.017240      2.000000
 -0.051438  0.038864  0.017240      2.000000
[...]
 -0.102876  0.000000  0.103442      2.000000
 -0.077157  0.009716  0.103442      2.000000
 -0.077157  0.029148  0.103442      2.000000
 -0.051438  0.038864  0.103442      2.000000
 -0.025719  0.048580  0.103442      2.000000
  0.000000  0.058297  0.103442      2.000000
  0.025719  0.068013  0.103442      2.000000
 -0.154313  0.000000  0.103442      2.000000
 -0.128594  0.009716  0.103442      2.000000
 -0.102876  0.019432  0.103442      2.000000
 -0.102876  0.038864  0.103442      1.000000
 -0.077157  0.048580  0.103442      2.000000
 -0.051438  0.058297  0.103442      2.000000
 -0.025719  0.068013  0.103442      2.000000
  0.000000  0.077729  0.103442      1.000000

 Subroutine IBZKPT_HF returns following result:

 Found    768 k-points in 1st BZ
 the following    768 k-points will be used (e.g. in the exchange kernel)
 Following reciprocal coordinates:   # in IRBZ
  0.000000  0.000000  0.000000    0.00130208   1 t-inv F
  0.125000  0.000000  0.000000    0.00130208   2 t-inv F
  0.250000  0.000000  0.000000    0.00130208   3 t-inv F
  0.375000  0.000000  0.000000    0.00130208   4 t-inv F
  0.500000  0.000000  0.000000    0.00130208   5 t-inv F
  0.000000  0.125000  0.000000    0.00130208   6 t-inv F
  0.125000  0.125000  0.000000    0.00130208   7 t-inv F
  0.250000  0.125000  0.000000    0.00130208   8 t-inv F
  0.375000  0.125000  0.000000    0.00130208   9 t-inv F
  0.500000  0.125000  0.000000    0.00130208  10 t-inv F
 -0.375000  0.125000  0.000000    0.00130208  11 t-inv F
 -0.250000  0.125000  0.000000    0.00130208  12 t-inv F
 -0.125000  0.125000  0.000000    0.00130208  13 t-inv F
  0.000000  0.250000  0.000000    0.00130208  14 t-inv F
  0.125000  0.250000  0.000000    0.00130208  15 t-inv F
  0.250000  0.250000  0.000000    0.00130208  16 t-inv F
  0.375000  0.250000  0.000000    0.00130208  17 t-inv F
  0.500000  0.250000  0.000000    0.00130208  18 t-inv F
[...]

  energy without entropy =       -3.09969290

[...]

 change of polarisation eV/A/(eV/A) component  1 :     6.653     0.000     0.000
 dielectric tensor                  component  1 :     8.966     0.000     0.000

 Linear response to external field (no local field effect), progress :
  Direction:   2
  LATTYP: Found a base centered orthorhombic cell.
 ALAT       =     4.8602433554
 B/A-ratio  =     2.6470409334
 C/A-ratio  =     0.9945255073

[...]

 Linear response to external field (no local field effect), progress :
  Direction:   3
  LATTYP: Found a base centered orthorhombic cell.
 ALAT       =     4.8602433554
 B/A-ratio  =     2.6470409334
 C/A-ratio  =     0.9945255073

[...]

 HEAD OF MICROSCOPIC STATIC DIELECTRIC TENSOR (INDEPENDENT PARTICLE, excluding Hartree and local field effects)
           8.965936    -0.000000    -0.000004
           0.000002     9.510323     0.000001
           0.000001     0.000002    10.126982

 Linear response to external field, progress :
  Direction:   1
  LATTYP: Found a base centered orthorhombic cell.
 ALAT       =     4.8602433554
 B/A-ratio  =     2.6470409334
 C/A-ratio  =     0.9945255073

[...]

 PIEZOELECTRIC TENSOR FIELD DIRECTION 1  (e Angst)
     0.00025  0.00061 -0.00107           ( -0.00000 -0.00000  0.00000)
     0.00061  0.00054  0.00000           ( -0.00000 -0.00000 -0.00000)
    -0.00108 -0.00000 -0.00081           (  0.00000 -0.00000 -0.00000)

 PIEZOELECTRIC TENSOR FIELD DIRECTION 1  (C/m^2)
     0.00003  0.00007 -0.00011
     0.00007  0.00006  0.00000
    -0.00011 -0.00000 -0.00009

      POSITION         DIRECTION 1           BORN EFFECTIVE CHARGE    (rigid.aug.   ionic)
      0.00000      7.76119      3.62523     2.42439  0.00004  0.00000 ( -6.90328 13.00000)
     -0.00000      5.10408      1.20841     2.42436 -0.00004  0.00000 ( -6.90328 13.00000)
      0.00000     10.98570      3.62523    -2.42439  0.00002 -0.00000 (  1.67048  7.00000)
     -0.00000      1.87957      1.20841    -2.42428 -0.00002  0.00000 (  1.67048  7.00000)
    total drift (improves with k-points):   0.00009 -0.00000  0.00000

[...]

 Linear response to external field, progress :
  Direction:   3
  LATTYP: Found a base centered orthorhombic cell.
 ALAT       =     4.8602433554
 B/A-ratio  =     2.6470409334
 C/A-ratio  =     0.9945255073

[...]

 change of polarisation eV/A/(eV/A) component  3 :    -0.000     0.000     7.070
 dielectric tensor                  component  3 :    -0.000     0.000     9.466

 PIEZOELECTRIC TENSOR FIELD DIRECTION 3  (e Angst)
    -0.00268 -0.00000  0.00017           ( -0.00000  0.00000  0.00000)
     0.00000 -0.00929  0.00015           (  0.00000  0.00000  0.00000)
     0.00017  0.00015  0.00718           (  0.00000  0.00000 -0.00000)

 PIEZOELECTRIC TENSOR FIELD DIRECTION 3  (C/m^2)
    -0.00028 -0.00000  0.00002
     0.00000 -0.00098  0.00002
     0.00002  0.00002  0.00076

      POSITION         DIRECTION 3           BORN EFFECTIVE CHARGE    (rigid.aug.   ionic)
      0.00000      7.76119      3.62523     0.00000 -0.00085  2.40778 ( -6.90328 13.00000)
     -0.00000      5.10408      1.20841     0.00000  0.00085  2.40776 ( -6.90328 13.00000)
      0.00000     10.98570      3.62523     0.00000 -0.00016 -2.40779 (  1.67048  7.00000)
     -0.00000      1.87957      1.20841     0.00000  0.00016 -2.40776 (  1.67048  7.00000)
    total drift (improves with k-points):   0.00001 -0.00000 -0.00001

[...]

 MACROSCOPIC STATIC DIELECTRIC TENSOR (including local field effects in DFT)
           8.363778    -0.000000    -0.000003
           0.000002     8.902110     0.000001
           0.000000     0.000001     9.466092

 Linear response:
   Degrees of freedom DOF   =            6
 Linear response progress:
  Degree of freedom:   1/  6
  LATTYP: Found a base centered orthorhombic cell.
 ALAT       =     4.8602433554
 B/A-ratio  =     2.6470409334
 C/A-ratio  =     0.9945255073

[...]

 INTERNAL STRAIN TENSOR  FOR ION    1  DIRECTION 1   (eV/Angst):
     0.00014  0.38254 -0.00546
     0.31381  0.00011 -0.00004
     0.00723 -0.00005 -0.00018

 POSITION                   FORCE-CONSTANT FOR ION    1 DIRECTION 1 (eV/Angst/Angst)
      0.00000      7.76119      3.62523        -0.387381     -0.001069     -0.000006
     -0.00000      5.10408      1.20841        -0.090520      0.000384      0.000001
      0.00000     10.98570      3.62523         0.058760      0.000302      0.000001
     -0.00000      1.87957      1.20841         0.419141      0.000383      0.000004
    total drift:                               -0.000000     -0.000000      0.000000

 BORN EFFECTIVE CHARGE FOR ION    1 DIRECTION 1 :   2.424   0.000  -0.000
                   rigid augmentation           :  -6.903  -0.000   0.000
                   ionic contribution           :  13.000  -0.000   0.000
                   Berry contribution           :  -3.672   0.000  -0.000

 Linear response progress:
  Degree of freedom:   2/  6
  LATTYP: Found a base centered orthorhombic cell.
 ALAT       =     4.8602433554
 B/A-ratio  =     2.6470409334
 C/A-ratio  =     0.9945255073

[...]

 Linear response progress:
  Degree of freedom:   6/  6
  LATTYP: Found a base centered orthorhombic cell.
 ALAT       =     4.8602433554
 B/A-ratio  =     2.6470409334
 C/A-ratio  =     0.9945255073

[...]

The dynamic configuration has the point symmetry C_1 .

[...]

----------------------------------------- Iteration   12(  20)  ---------------------------------------

 Broyden mixing:
  rms(total) = 0.15404E-03    rms(broyden)= 0.15404E-03
  rms(prec ) = 0.15450E-03
  weight for this iteration     100.00

 eigenvalues of (default mixing * dielectric matrix)
  average eigenvalue GAMMA=   1.3483
  3.2689  2.1897  2.1897  2.8601  2.4867  1.9393  1.6963  1.4703  1.0166  1.0166
  1.0040  0.7816  0.6817  0.6817  0.4222  0.1904  0.1904  0.1832

 Free energy of the ion-electron system (eV)
  -Hartree energ DENC   =        -0.04660726
  -V(xc)+E(xc)   XCENC  =         0.00050086
  PAW double counting   =         0.00026289       -0.00026277
  entropy T*S    EENTRO =        -0.00000000
  eigenvalues    EBANDS =        -0.04022012
  free energy    TOTEN  =        -0.08632640 eV

  energy without entropy =       -0.08632640

[...]

 k-point 388 :       0.5000    0.5000    0.5000
  band No.  band energies     occupation
      1      -0.0255      0.00000
      2       0.0253      0.00000
      3       0.0116      0.00000
      4      -0.0118      0.00000
      5      -0.0018      0.00000
      6       0.0016      0.00000
      7       0.0090      0.00000
      8      -0.0092      0.00000
      9       0.0162      0.00000
     10      -0.0165      0.00000
     11      -0.1529      0.00000
     12       0.1533      0.00000
     13      -0.2571      0.00000
     14       0.2572      0.00000
     15      -0.5905      0.00000
     16       0.5907      0.00000
     17      -0.0124      0.00000
     18       0.0128      0.00000
     19      -0.3229      0.00000
     20       0.3230      0.00000
     21      -0.0565      0.00000
     22       0.0565      0.00000
     23      -0.7834      0.00000
     24       0.7834      0.00000

------------------------ aborting loop because EDIFF is reached ----------------------------------------

 INTERNAL STRAIN TENSOR  FOR ION    3  DIRECTION 3   (eV/Angst):
    -0.00089 -0.05400 -0.00027
     0.05314  0.00208 -0.22727
    -0.00022 -0.37061  0.00237

 POSITION                   FORCE-CONSTANT FOR ION    3 DIRECTION 3 (eV/Angst/Angst)
      0.00000      7.76119      3.62523         0.000003      0.000152     -0.086033
     -0.00000      5.10408      1.20841         0.000009     -0.000011      0.448950
      0.00000     10.98570      3.62523        -0.000019     -0.000092     -0.894001
     -0.00000      1.87957      1.20841         0.000006     -0.000049      0.531084
    total drift:                               -0.000000     -0.000000      0.000000

 BORN EFFECTIVE CHARGE FOR ION    3 DIRECTION 3 :   0.000   0.000  -2.408
                   rigid augmentation           :   0.000   0.000   1.670
                   ionic contribution           :   0.000   0.000   7.000
                   Berry contribution           :   0.000   0.000 -11.078

  LATTYP: Found a base centered orthorhombic cell.
 ALAT       =     4.8602433554
 B/A-ratio  =     2.6470409334
 C/A-ratio  =     0.9945255073

  Lattice vectors:

 A1 = (   2.4301216777,   6.4326315541,   0.0000000000)
 A2 = (   2.4301216777,  -6.4326315541,   0.0000000000)
 A3 = (   0.0000000000,   0.0000000000,  -4.8336359887)

Analysis of symmetry for initial positions (statically):
 Subroutine PRICEL returns:
 Original cell was already a primitive cell.

[...]

The static configuration has the point symmetry C_1 .
 The point group associated with its full space group is S_2 .

Analysis of symmetry for dynamics (positions and initial velocities):
 Subroutine PRICEL returns:
 Original cell was already a primitive cell.

 Routine SETGRP: Setting up the symmetry group for a
 base centered orthorhombic supercell.

 Subroutine GETGRP returns: Found  2 space group operations
 (whereof  1 operations were pure point group operations)
 out of a pool of  8 trial point group operations.

The dynamic configuration has the point symmetry C_1 .
 The point group associated with its full space group is S_2 .

 Subroutine INISYM returns: Found  2 space group operations
 (whereof  1 operations are pure point group operations),
 and found     1 'primitive' translations

 MACROSCOPIC STATIC DIELECTRIC TENSOR (including local field effects in DFT)
           8.363778    -0.000000    -0.000003
           0.000002     8.902110     0.000001
           0.000000     0.000001     9.466092

 PIEZOELECTRIC TENSOR  for field in x, y, z        (e  Angst)
          XX          YY          ZZ          XY          YZ          ZX
  x     0.00025     0.00054    -0.00081     0.00061    -0.00000    -0.00107
  y     0.00268    -0.00129    -0.00106    -0.00143    -0.02499     0.00002
  z    -0.00268    -0.00929     0.00718     0.00000     0.00015     0.00017

 PIEZOELECTRIC TENSOR  for field in x, y, z        (C/m^2)
          XX          YY          ZZ          XY          YZ          ZX
  x     0.00000     0.00000     0.00000     0.00000     0.00000     0.00000
  y     0.00000     0.00000     0.00000     0.00000     0.00000     0.00000
  z     0.00000     0.00000     0.00000     0.00000     0.00000     0.00000

 BORN EFFECTIVE CHARGES (in e, cummulative output)
 ion    1
    1     2.42437     0.00004    -0.00000
    2    -0.00008     2.46868    -0.00011
    3    -0.00000    -0.00085     2.40778
 ion    2
    1     2.42434    -0.00003     0.00000
    2     0.00008     2.46876     0.00011
    3    -0.00000     0.00085     2.40777
 ion    3
    1    -2.42441     0.00002    -0.00000
    2     0.00011    -2.46876    -0.00030
    3     0.00000    -0.00016    -2.40779
 ion    4
    1    -2.42430    -0.00002     0.00000
    2    -0.00011    -2.46869     0.00030
    3    -0.00000     0.00016    -2.40776

 INTERNAL STRAIN TENSOR FOR ION    1 for displacements in x,y,z  (eV/Angst):
          X           Y           Z          XY          YZ          ZX
  x     0.00014     0.00011    -0.00018     0.31381    -0.00005    -0.00546
  y     1.80091     3.28701     1.09728     0.00122    -0.03920    -0.00001
  z    -0.00099     0.00161     0.00090     0.00501    -0.03520     0.00021

[...]

 INTERNAL STRAIN TENSOR FOR ION    4 for displacements in x,y,z  (eV/Angst):
          X           Y           Z          XY          YZ          ZX
  x     0.00034    -0.00003    -0.00040     0.29293    -0.00002     0.02078
  y    -0.18125     2.92786    -0.52425     0.00107    -0.07665    -0.00001
  z     0.00089    -0.00208    -0.00237    -0.05314     0.37061     0.00027

 SECOND DERIVATIVES (NOT SYMMETRIZED)
               1X          1Y          1Z          2X          2Y          2Z          3X          3Y          3Z          4X          4Y          4Z
  1X    -0.387381   -0.001069   -0.000006   -0.090520    0.000384    0.000001    0.058760    0.000302    0.000001    0.419141    0.000383    0.000004
  1Y     0.000024   -1.412376   -0.000319    0.000013    0.613527    0.000173   -0.000020    0.872967    0.000022   -0.000017   -0.074118    0.000125
  1Z     0.000022    0.000345   -0.632906   -0.000008   -0.000186    0.266267   -0.000007   -0.000043   -0.083972   -0.000007   -0.000117    0.450611
  2X    -0.090520    0.000384    0.000001   -0.387381   -0.001069   -0.000006    0.419141    0.000383    0.000004    0.058760    0.000302    0.000001
  2Y     0.000013    0.613527    0.000173    0.000024   -1.412376   -0.000319   -0.000017   -0.074118    0.000125   -0.000020    0.872967    0.000022
  2Z    -0.000008   -0.000186    0.266267    0.000022    0.000345   -0.632906   -0.000007   -0.000117    0.450611   -0.000007   -0.000043   -0.083972
  3X     0.058465   -0.000018    0.000002    0.418858   -0.000049   -0.000006   -1.032977    0.000083    0.000009    0.555655   -0.000017   -0.000006
  3Y     0.000073    0.874981    0.000081    0.000001   -0.071716   -0.000297   -0.000097   -1.489854    0.000160    0.000024    0.686589    0.000057
  3Z     0.000003    0.000152   -0.086033    0.000009   -0.000011    0.448950   -0.000019   -0.000092   -0.894001    0.000006   -0.000049    0.531084
  4X     0.418858   -0.000049   -0.000006    0.058465   -0.000018    0.000002    0.555655   -0.000017   -0.000006   -1.032977    0.000083    0.000009
  4Y     0.000001   -0.071716   -0.000297    0.000073    0.874981    0.000081    0.000024    0.686589    0.000057   -0.000097   -1.489854    0.000160
  4Z     0.000009   -0.000011    0.448950    0.000003    0.000152   -0.086033    0.000006   -0.000049    0.531084   -0.000019   -0.000092   -0.894001

 Eigenvectors and eigenvalues of the dynamical matrix

   1 f  =    2.483945 THz    15.607086 2PiTHz   82.855480 cm-1    10.272774 meV
             X         Y         Z           dx          dy          dz
      0.000000  7.761186  3.625227     0.000143    0.507805    0.000052
     -0.000000  5.104077  1.208409    -0.000143   -0.507805   -0.000052
      0.000000 10.985697  3.625227     0.000026   -0.492071    0.000016
     -0.000000  1.879567  1.208409    -0.000026    0.492071   -0.000016

[...]

   9 f  =    0.655322 THz     4.117511 2PiTHz   21.859193 cm-1     2.710196 meV
             X         Y         Z           dx          dy          dz
      0.000000  7.761186  3.625227     0.681370   -0.000362    0.000017
     -0.000000  5.104077  1.208409    -0.681370    0.000362   -0.000017
      0.000000 10.985697  3.625227    -0.189036   -0.000185   -0.000010
     -0.000000  1.879567  1.208409     0.189036    0.000185    0.000010

  10 f/i=    0.000401 THz     0.002521 2PiTHz    0.013384 cm-1     0.001659 meV
             X         Y         Z           dx          dy          dz
      0.000000  7.761186  3.625227    -0.479263   -0.087054    0.009525
     -0.000000  5.104077  1.208409    -0.479263   -0.087054    0.009525
      0.000000 10.985697  3.625227    -0.504147   -0.091506    0.010014
     -0.000000  1.879567  1.208409    -0.504147   -0.091506    0.010014

[...]

  12 f/i=    0.003182 THz     0.019992 2PiTHz    0.106132 cm-1     0.013159 meV
             X         Y         Z           dx          dy          dz
      0.000000  7.761186  3.625227    -0.021055    0.166457    0.456383
     -0.000000  5.104077  1.208409    -0.021055    0.166457    0.456383
      0.000000 10.985697  3.625227    -0.022182    0.174415    0.482339
     -0.000000  1.879567  1.208409    -0.022182    0.174415    0.482339

 MACROSCOPIC STATIC DIELECTRIC TENSOR IONIC CONTRIBUTION
          29.470795    -0.006133     0.000008
          -0.006133    18.220264     0.001137
           0.000008     0.001137    38.060373

 ELASTIC MODULI IONIC CONTR (kBar)
 Direction    XX          YY          ZZ          XY          YZ          ZX
 XX         -46.7437    -44.5489    -33.6574      0.0058      0.0063      0.0000
 YY         -44.5489   -136.7655    -20.1013     -0.0217      2.3507      0.0004
 ZZ         -33.6574    -20.1013    -25.7557      0.0246     -0.2767      0.0001
 XY           0.0058     -0.0217      0.0246    -15.4479      0.3428     -0.0530
 YZ           0.0063      2.3507     -0.2767      0.3428     -2.4290     -0.0025
 ZX           0.0000      0.0004      0.0001     -0.0530     -0.0025     -0.0058

 PIEZOELECTRIC TENSOR IONIC CONTR  for field in x, y, z        (C/m^2)
          XX          YY          ZZ          XY          YZ          ZX
  x     0.00001     0.00001     0.00001     0.00001     0.00000     0.00000
  y    -0.00001    -0.00000    -0.00001    -0.00005     0.00002    -0.00000
  z    -0.00023    -0.00020    -0.00017    -0.00000     0.00000    -0.00000