 vasp.5.4.4.18Apr17-6-g9f103f2a35 (build Aug 24 2017 11:22:49) complex

 executed on             LinuxIFC date 2023.12.25  13:07:46

 INCAR:
 POTCAR:    PAW_PBE Tl_d 06Sep2000
 POTCAR:    PAW_PBE Cl 06Sep2000

 POTCAR:    PAW_PBE Tl_d 06Sep2000
   VRHFIN =Tl:

   TITEL  = PAW_PBE Tl_d 06Sep2000
   POMASS =  204.380; ZVAL   =   13.000    mass and valenz
   ENMAX  =  237.053; ENMIN  =  177.789 eV

 POTCAR:    PAW_PBE Cl 06Sep2000
   VRHFIN =Cl: s2p5

   TITEL  = PAW_PBE Cl 06Sep2000
   POMASS =   35.453; ZVAL   =    7.000    mass and valenz
   ENMAX  =  262.472; ENMIN  =  196.854 eV

  PAW_PBE Tl_d 06Sep2000                :
  PAW_PBE Cl 06Sep2000                  :

 POSCAR: Tl1 Cl1
  positions in direct lattice
 exchange correlation table for  LEXCH =        8
   RHO(1)=    0.500       N(1)  =     2000
   RHO(2)=  100.500       N(2)  =     4000

 ion  position               nearest neighbor table
   1  0.000  0.000  0.000-   2 3.32   2 3.32   2 3.32   2 3.32   2 3.32   2 3.32   2 3.32   2 3.32

   2  0.500  0.500  0.500-   1 3.32   1 3.32   1 3.32   1 3.32   1 3.32   1 3.32   1 3.32   1 3.32

  LATTYP: Found a simple cubic cell.
 ALAT       =     3.8374670852

  Lattice vectors:

 A1 = (   3.8374670852,   0.0000000000,   0.0000000000)
 A2 = (   0.0000000000,   3.8374670852,   0.0000000000)
 A3 = (   0.0000000000,   0.0000000000,   3.8374670852)

Analysis of symmetry for initial positions (statically):
 Subroutine PRICEL returns:
 Original cell was already a primitive cell.

 Routine SETGRP: Setting up the symmetry group for a
 simple cubic supercell.

 Subroutine GETGRP returns: Found  6 space group operations
 (whereof  6 operations were pure point group operations)
 out of a pool of 48 trial point group operations.

The static configuration has the point symmetry C_3v.

Analysis of symmetry for dynamics (positions and initial velocities):
 Subroutine PRICEL returns:
 Original cell was already a primitive cell.

[...]

The dynamic configuration has the point symmetry C_3v.

 Subroutine INISYM returns: Found  6 space group operations
 (whereof  6 operations are pure point group operations),
 and found     1 'primitive' translations

 KPOINTS: pymatgen with grid density = 3000 / numb

Automatic generation of k-mesh.
Space group operators:
 irot       det(A)        alpha          n_x          n_y          n_z        tau_x        tau_y        tau_z
    1     1.000000     0.000000     1.000000     0.000000     0.000000     0.000000     0.000000     0.000000
    2     1.000000   120.000000    -0.577350    -0.577350    -0.577350     0.000000     0.000000     0.000000
    3     1.000000   120.000000     0.577350     0.577350     0.577350     0.000000     0.000000     0.000000
    4    -1.000000   180.000000     0.000000    -0.707107     0.707107     0.000000     0.000000     0.000000
    5    -1.000000   180.000000     0.707107    -0.707107     0.000000     0.000000     0.000000     0.000000
    6    -1.000000   180.000000     0.707107     0.000000    -0.707107     0.000000     0.000000     0.000000

 Subroutine IBZKPT returns following result:

 Found    189 irreducible k-points:

 Following reciprocal coordinates:
            Coordinates               Weight
  0.000000  0.000000  0.000000      1.000000
  0.083333  0.000000  0.000000      6.000000
  0.166667  0.000000  0.000000      6.000000
  0.250000  0.000000  0.000000      6.000000
  0.333333  0.000000  0.000000      6.000000
  0.416667  0.000000  0.000000      6.000000
  0.500000  0.000000  0.000000      3.000000
  0.083333  0.083333  0.000000      6.000000
  0.166667  0.083333  0.000000     12.000000
  0.250000  0.083333  0.000000     12.000000
  0.333333  0.083333  0.000000     12.000000
  0.416667  0.083333  0.000000     12.000000
  0.500000  0.083333  0.000000     12.000000
 -0.416667  0.083333  0.000000     12.000000
 -0.333333  0.083333  0.000000     12.000000
 -0.250000  0.083333  0.000000     12.000000
 -0.166667  0.083333  0.000000     12.000000
 -0.083333  0.083333  0.000000      6.000000
  0.166667  0.166667  0.000000      6.000000
  0.250000  0.166667  0.000000     12.000000
  0.333333  0.166667  0.000000     12.000000
  0.416667  0.166667  0.000000     12.000000
  0.500000  0.166667  0.000000     12.000000
 -0.416667  0.166667  0.000000     12.000000
 -0.333333  0.166667  0.000000     12.000000
 -0.250000  0.166667  0.000000     12.000000
 -0.166667  0.166667  0.000000      6.000000
  0.250000  0.250000  0.000000      6.000000
  0.333333  0.250000  0.000000     12.000000
  0.416667  0.250000  0.000000     12.000000
  0.500000  0.250000  0.000000     12.000000
 -0.416667  0.250000  0.000000     12.000000
 -0.333333  0.250000  0.000000     12.000000
 -0.250000  0.250000  0.000000      6.000000
  0.333333  0.333333  0.000000      6.000000
  0.416667  0.333333  0.000000     12.000000
  0.500000  0.333333  0.000000     12.000000
 -0.416667  0.333333  0.000000     12.000000
 -0.333333  0.333333  0.000000      6.000000
  0.416667  0.416667  0.000000      6.000000
  0.500000  0.416667  0.000000     12.000000
 -0.416667  0.416667  0.000000      6.000000
  0.500000  0.500000  0.000000      3.000000
  0.083333  0.083333  0.083333      2.000000
  0.166667  0.083333  0.083333      6.000000
  0.250000  0.083333  0.083333      6.000000
  0.333333  0.083333  0.083333      6.000000
  0.416667  0.083333  0.083333      6.000000
  0.500000  0.083333  0.083333      6.000000
 -0.416667  0.083333  0.083333      6.000000
 -0.333333  0.083333  0.083333      6.000000
 -0.250000  0.083333  0.083333      6.000000
 -0.166667  0.083333  0.083333      6.000000
 -0.083333  0.083333  0.083333      6.000000
  0.166667  0.166667  0.083333      6.000000
  0.250000  0.166667  0.083333     12.000000
  0.333333  0.166667  0.083333     12.000000
  0.416667  0.166667  0.083333     12.000000
  0.500000  0.166667  0.083333     12.000000
 -0.416667  0.166667  0.083333     12.000000
[...]
 -0.333333  0.333333  0.333333      6.000000
  0.416667  0.416667  0.333333      6.000000
  0.500000  0.416667  0.333333     12.000000
 -0.416667  0.416667  0.333333     12.000000
 -0.333333  0.416667  0.333333     12.000000
  0.500000  0.500000  0.333333      6.000000
 -0.416667  0.500000  0.333333     12.000000
 -0.333333  0.500000  0.333333      6.000000
 -0.416667 -0.416667  0.333333      6.000000
  0.416667  0.416667  0.416667      2.000000
  0.500000  0.416667  0.416667      6.000000
 -0.416667  0.416667  0.416667      6.000000
  0.500000  0.500000  0.416667      6.000000
 -0.416667  0.500000  0.416667      6.000000
  0.500000  0.500000  0.500000      1.000000

 Following cartesian coordinates:
            Coordinates               Weight
  0.000000  0.000000  0.000000      1.000000
  0.021716  0.000000  0.000000      6.000000
  0.043431  0.000000  0.000000      6.000000
  0.065147  0.000000  0.000000      6.000000
  0.086863  0.000000  0.000000      6.000000
  0.108579  0.000000  0.000000      6.000000
  0.130294  0.000000  0.000000      3.000000
  0.021716  0.021716  0.000000      6.000000
  0.043431  0.021716  0.000000     12.000000
  0.065147  0.021716  0.000000     12.000000
  0.086863  0.021716  0.000000     12.000000
  0.108579  0.021716  0.000000     12.000000
  0.130294  0.021716  0.000000     12.000000
 -0.108579  0.021716  0.000000     12.000000
 -0.086863  0.021716  0.000000     12.000000
 -0.065147  0.021716  0.000000     12.000000
 -0.043431  0.021716  0.000000     12.000000
 -0.021716  0.021716  0.000000      6.000000
  0.043431  0.043431  0.000000      6.000000
  0.065147  0.043431  0.000000     12.000000
  0.086863  0.043431  0.000000     12.000000
  0.108579  0.043431  0.000000     12.000000
  0.130294  0.043431  0.000000     12.000000
 -0.108579  0.043431  0.000000     12.000000
 -0.086863  0.043431  0.000000     12.000000
 -0.065147  0.043431  0.000000     12.000000
 -0.043431  0.043431  0.000000      6.000000
  0.065147  0.065147  0.000000      6.000000
  0.086863  0.065147  0.000000     12.000000
  0.108579  0.065147  0.000000     12.000000
  0.130294  0.065147  0.000000     12.000000
 -0.108579  0.065147  0.000000     12.000000
 -0.086863  0.065147  0.000000     12.000000
 -0.065147  0.065147  0.000000      6.000000
  0.086863  0.086863  0.000000      6.000000
  0.108579  0.086863  0.000000     12.000000
  0.130294  0.086863  0.000000     12.000000
 -0.108579  0.086863  0.000000     12.000000
 -0.086863  0.086863  0.000000      6.000000
  0.108579  0.108579  0.000000      6.000000
  0.130294  0.108579  0.000000     12.000000
 -0.108579  0.108579  0.000000      6.000000
  0.130294  0.130294  0.000000      3.000000
  0.021716  0.021716  0.021716      2.000000
  0.043431  0.021716  0.021716      6.000000
  0.065147  0.021716  0.021716      6.000000
  0.086863  0.021716  0.021716      6.000000
  0.108579  0.021716  0.021716      6.000000
  0.130294  0.021716  0.021716      6.000000
 -0.108579  0.021716  0.021716      6.000000
 -0.086863  0.021716  0.021716      6.000000
 -0.065147  0.021716  0.021716      6.000000
 -0.043431  0.021716  0.021716      6.000000
 -0.021716  0.021716  0.021716      6.000000
  0.043431  0.043431  0.021716      6.000000
  0.065147  0.043431  0.021716     12.000000
  0.086863  0.043431  0.021716     12.000000
  0.108579  0.043431  0.021716     12.000000
  0.130294  0.043431  0.021716     12.000000
 -0.108579  0.043431  0.021716     12.000000
[...]
 -0.086863  0.086863  0.086863      6.000000
  0.108579  0.108579  0.086863      6.000000
  0.130294  0.108579  0.086863     12.000000
 -0.108579  0.108579  0.086863     12.000000
 -0.086863  0.108579  0.086863     12.000000
  0.130294  0.130294  0.086863      6.000000
 -0.108579  0.130294  0.086863     12.000000
 -0.086863  0.130294  0.086863      6.000000
 -0.108579 -0.108579  0.086863      6.000000
  0.108579  0.108579  0.108579      2.000000
  0.130294  0.108579  0.108579      6.000000
 -0.108579  0.108579  0.108579      6.000000
  0.130294  0.130294  0.108579      6.000000
 -0.108579  0.130294  0.108579      6.000000
  0.130294  0.130294  0.130294      1.000000

 Subroutine IBZKPT_HF returns following result:

 Found   1728 k-points in 1st BZ
 the following   1728 k-points will be used (e.g. in the exchange kernel)
 Following reciprocal coordinates:   # in IRBZ
  0.000000  0.000000  0.000000    0.00057870   1 t-inv F
  0.083333  0.000000  0.000000    0.00057870   2 t-inv F
  0.166667  0.000000  0.000000    0.00057870   3 t-inv F
  0.250000  0.000000  0.000000    0.00057870   4 t-inv F
  0.333333  0.000000  0.000000    0.00057870   5 t-inv F
  0.416667  0.000000  0.000000    0.00057870   6 t-inv F
  0.500000  0.000000  0.000000    0.00057870   7 t-inv F
  0.083333  0.083333  0.000000    0.00057870   8 t-inv F
  0.166667  0.083333  0.000000    0.00057870   9 t-inv F
  0.250000  0.083333  0.000000    0.00057870  10 t-inv F
  0.333333  0.083333  0.000000    0.00057870  11 t-inv F
  0.416667  0.083333  0.000000    0.00057870  12 t-inv F
  0.500000  0.083333  0.000000    0.00057870  13 t-inv F
 -0.416667  0.083333  0.000000    0.00057870  14 t-inv F
 -0.333333  0.083333  0.000000    0.00057870  15 t-inv F
 -0.250000  0.083333  0.000000    0.00057870  16 t-inv F
[...]
      3      -7.2448      2.00000
      4      -7.0012      2.00000
      5      -7.0012      2.00000
      6      -7.0012      2.00000
      7      -1.8637      2.00000
      8       1.1717      2.00000
      9       1.1717      2.00000
     10       1.1717      2.00000
     11      10.4983      0.00000
     12      10.4983      0.00000
     13      10.4983      0.00000
     14      10.5355      0.00000
     15      10.5355      0.00000
     16      15.1822      0.00000

[...]

 soft charge-density along one line, spin component           1
         0         1         2         3         4         5         6         7         8         9
 total charge-density along one line

------------------------ aborting loop because EDIFF is reached ----------------------------------------

  FORCE on cell =-STRESS in cart. coord.  units (eV):
  Direction    XX          YY          ZZ          XY          YZ          ZX
  Alpha Z    50.45179    50.45179    50.45179
  Ewald    -478.11028  -478.11028  -478.11028     0.00000     0.00000     0.00000
  Hartree   137.39315   137.39315   137.39315     0.00000     0.00000     0.00000
  E(xc)     -87.99954   -87.99954   -87.99954     0.00000     0.00000     0.00000
  Local     -87.97521   -87.97521   -87.97521    -0.00000    -0.00000    -0.00000
  n-local   120.76749   120.41293   119.92087    -0.06347    -0.08678     0.15025
  augment    79.82564    79.82564    79.82564     0.00000     0.00000     0.00000
  Kinetic   266.13675   266.24672   266.95563    -0.10115    -1.16353     1.26469
  Fock        0.00000     0.00000     0.00000     0.00000     0.00000     0.00000
  Total       0.39902     0.39902     0.39902    -0.00000    -0.00000    -0.00000
  in kB      11.31287    11.31287    11.31287    -0.00000    -0.00000    -0.00000

 VOLUME and BASIS-vectors are now :
  energy-cutoff  :      520.00
  volume of cell :       56.51
      direct lattice vectors                 reciprocal lattice vectors
     3.837467085  0.000000000  0.000000000     0.260588554  0.000000000  0.000000000
     0.000000000  3.837467085  0.000000000     0.000000000  0.260588554  0.000000000
     0.000000000  0.000000000  3.837467085     0.000000000  0.000000000  0.260588554

  length of vectors
     3.837467085  3.837467085  3.837467085     0.260588554  0.260588554  0.260588554

 FORCES acting on ions
    electron-ion (+dipol)            ewald-force                    non-local-force                 convergence-correction
   -.131E-04 -.131E-04 -.131E-04   0.143E-04 0.143E-04 0.143E-04   -.117E-05 -.117E-05 -.117E-05   0.170E-07 0.170E-07 0.170E-07
   0.140E-04 0.140E-04 0.140E-04   -.143E-04 -.143E-04 -.143E-04   0.256E-06 0.256E-06 0.256E-06   0.256E-07 0.256E-07 0.256E-07
   0.841E-06 0.841E-06 0.841E-06   -.178E-14 0.107E-14 0.983E-15   -.915E-06 -.915E-06 -.915E-06   0.426E-07 0.426E-07 0.426E-07

 POSITION                                       TOTAL-FORCE (eV/Angst)
      0.00000      0.00000      0.00000         0.000000      0.000000      0.000000
      1.91873      1.91873      1.91873        -0.000000     -0.000000     -0.000000
    total drift:                               -0.000000     -0.000000     -0.000000

  FREE ENERGIE OF THE ION-ELECTRON SYSTEM (eV)
  free  energy   TOTEN  =        -6.00566888 eV

  energy  without entropy=       -6.00566888  energy(sigma->0) =       -6.00566888

 Found     2 degrees of freedom:

     directions for atom     1:  x
     directions for atom     2:  x
 Linear response reoptimize wavefunctions
 Linear response to external field (no local field effect), progress :
  Direction:   1
  LATTYP: Found a simple cubic cell.
 ALAT       =     3.8374670852

[...]

The dynamic configuration has the point symmetry C_1h.

[...]

----------------------------------------- Iteration    1(   1)  ---------------------------------------

 Free energy of the ion-electron system (eV)
  -Hartree energ DENC   =         0.00000000
  -V(xc)+E(xc)   XCENC  =         0.00000000
  PAW double counting   =         0.00000000        0.00000000
  entropy T*S    EENTRO =         0.00000000
  eigenvalues    EBANDS =        -0.76375273
  free energy    TOTEN  =        -0.76375273 eV

  energy without entropy =       -0.76375273

[...]

 change of polarisation eV/A/(eV/A) component  1 :     1.574    -0.022     0.171
 dielectric tensor                  component  1 :     6.041    -0.071     0.549

 Linear response to external field (no local field effect), progress :
  Direction:   2
  LATTYP: Found a simple cubic cell.
 ALAT       =     3.8374670852

[...]

 Linear response to external field (no local field effect), progress :
  Direction:   3
  LATTYP: Found a simple cubic cell.
 ALAT       =     3.8374670852

[...]

 HEAD OF MICROSCOPIC STATIC DIELECTRIC TENSOR (INDEPENDENT PARTICLE, excluding Hartree and local field effects)
           5.804698    -0.000000    -0.000000
          -0.000000     5.804698    -0.000000
          -0.000000    -0.000000     5.804698

 Linear response to external field, progress :
  Direction:   1
  LATTYP: Found a simple cubic cell.
 ALAT       =     3.8374670852

[...]

 PIEZOELECTRIC TENSOR FIELD DIRECTION 1  (e Angst)
     0.00011  0.00005  0.00005           ( -0.00000 -0.00000 -0.00000)
     0.00005 -0.00002  0.00007           ( -0.00000  0.00000 -0.00000)
     0.00005  0.00007 -0.00002           ( -0.00000 -0.00000  0.00000)

 PIEZOELECTRIC TENSOR FIELD DIRECTION 1  (C/m^2)
     0.00003  0.00001  0.00001
     0.00001 -0.00001  0.00002
     0.00001  0.00002 -0.00001

      POSITION         DIRECTION 1           BORN EFFECTIVE CHARGE    (rigid.aug.   ionic)
      0.00000      0.00000      0.00000     2.03069  0.00000  0.00000 ( -5.09605 13.00000)
      1.91873      1.91873      1.91873    -2.03064  0.00000  0.00000 (  0.95181  7.00000)
    total drift (improves with k-points):   0.00005  0.00000  0.00000

[...]

 Linear response to external field, progress :
  Direction:   3
  LATTYP: Found a simple cubic cell.
 ALAT       =     3.8374670852

[...]

 change of polarisation eV/A/(eV/A) component  3 :     0.110    -0.110     1.344
 dielectric tensor                  component  3 :     0.351    -0.351     5.303

 PIEZOELECTRIC TENSOR FIELD DIRECTION 3  (e Angst)
    -0.00043  0.00000  0.00001           (  0.00000 -0.00000 -0.00000)
     0.00000 -0.00043  0.00001           ( -0.00000  0.00000 -0.00000)
     0.00001  0.00001  0.00099           ( -0.00000 -0.00000 -0.00000)

 PIEZOELECTRIC TENSOR FIELD DIRECTION 3  (C/m^2)
    -0.00012  0.00000  0.00000
     0.00000 -0.00012  0.00000
     0.00000  0.00000  0.00028

      POSITION         DIRECTION 3           BORN EFFECTIVE CHARGE    (rigid.aug.   ionic)
      0.00000      0.00000      0.00000     0.00000  0.00000  2.03069 ( -5.09605 13.00000)
      1.91873      1.91873      1.91873     0.00000  0.00000 -2.03064 (  0.95181  7.00000)
    total drift (improves with k-points):   0.00000  0.00000  0.00005

[...]

 MACROSCOPIC STATIC DIELECTRIC TENSOR (including local field effects in DFT)
           5.302714    -0.000000    -0.000000
          -0.000000     5.302714    -0.000000
          -0.000000    -0.000000     5.302714

 Linear response:
   Degrees of freedom DOF   =            2
 Linear response progress:
  Degree of freedom:   1/  2
  LATTYP: Found a simple cubic cell.
 ALAT       =     3.8374670852

[...]

 INTERNAL STRAIN TENSOR  FOR ION    1  DIRECTION 1   (eV/Angst):
    -0.00002  0.00018  0.00018
     0.00018 -0.00007 -0.00022
     0.00018 -0.00022 -0.00007

 POSITION                   FORCE-CONSTANT FOR ION    1 DIRECTION 1 (eV/Angst/Angst)
      0.00000      0.00000      0.00000        -0.248772      0.000056      0.000056
      1.91873      1.91873      1.91873         0.248772     -0.000056     -0.000056
    total drift:                                0.000000      0.000000      0.000000

 BORN EFFECTIVE CHARGE FOR ION    1 DIRECTION 1 :   2.031  -0.000  -0.000
                   rigid augmentation           :  -5.096   0.000   0.000
                   ionic contribution           :  13.000   0.000   0.000
                   Berry contribution           :  -5.873  -0.000  -0.000

 Linear response progress:
  Degree of freedom:   2/  2
  LATTYP: Found a simple cubic cell.
 ALAT       =     3.8374670852

[...]

The dynamic configuration has the point symmetry C_1h.

[...]

----------------------------------------- Iteration    7(  12)  ---------------------------------------

 Broyden mixing:
  rms(total) = 0.87629E-06    rms(broyden)= 0.87627E-06
  rms(prec ) = 0.17893E-05
  weight for this iteration     100.00

 eigenvalues of (default mixing * dielectric matrix)
  average eigenvalue GAMMA=   1.8004
  3.1237  2.8989  2.4828  2.3986  1.6446  1.5110  1.0083  0.9768  0.9798  0.9798

 Free energy of the ion-electron system (eV)
  -Hartree energ DENC   =        -0.10511702
  -V(xc)+E(xc)   XCENC  =         0.00063150
  PAW double counting   =         0.00027507       -0.00027474
  entropy T*S    EENTRO =         0.00000000
  eigenvalues    EBANDS =        -0.09178806
  free energy    TOTEN  =        -0.19627326 eV

  energy without entropy =       -0.19627326

[...]

 k-point 476 :       0.4167    0.5000    0.5000
  band No.  band energies     occupation
      1       0.0000      0.00000
      2       0.0000      0.00000
      3       0.0000      0.00000
      4       0.0000      0.00000
      5       0.0000      0.00000
      6       0.0000      0.00000
      7       0.0000      0.00000
      8      -0.0000      0.00000
      9       0.0000      0.00000
     10       0.0000      0.00000
     11       0.0000      0.00000
     12       0.0000      0.00000
     13      -0.0000      0.00000
     14       0.0000      0.00000
     15      -0.0000      0.00000
     16      -0.0000      0.00000

------------------------ aborting loop because EDIFF is reached ----------------------------------------

 INTERNAL STRAIN TENSOR  FOR ION    2  DIRECTION 1   (eV/Angst):
    -0.00019 -0.00056 -0.00056
    -0.00057  0.00012 -0.00007
    -0.00057 -0.00007  0.00012

 POSITION                   FORCE-CONSTANT FOR ION    2 DIRECTION 1 (eV/Angst/Angst)
      0.00000      0.00000      0.00000         0.253550      0.000030      0.000030
      1.91873      1.91873      1.91873        -0.253550     -0.000030     -0.000030
    total drift:                                0.000000      0.000000      0.000000

 BORN EFFECTIVE CHARGE FOR ION    2 DIRECTION 1 :  -2.031   0.000   0.000
                   rigid augmentation           :   0.952   0.000   0.000
                   ionic contribution           :   7.000   0.000   0.000
                   Berry contribution           :  -9.982   0.000   0.000

  LATTYP: Found a simple cubic cell.
 ALAT       =     3.8374670852

  Lattice vectors:

 A1 = (   3.8374670852,   0.0000000000,   0.0000000000)
 A2 = (   0.0000000000,   3.8374670852,   0.0000000000)
 A3 = (   0.0000000000,   0.0000000000,   3.8374670852)

Analysis of symmetry for initial positions (statically):
 Subroutine PRICEL returns:
 Original cell was already a primitive cell.

[...]

The static configuration has the point symmetry C_3v.

Analysis of symmetry for dynamics (positions and initial velocities):
 Subroutine PRICEL returns:
 Original cell was already a primitive cell.

 Routine SETGRP: Setting up the symmetry group for a
 simple cubic supercell.

 Subroutine GETGRP returns: Found  6 space group operations
 (whereof  6 operations were pure point group operations)
 out of a pool of 48 trial point group operations.

The dynamic configuration has the point symmetry C_3v.

 Subroutine INISYM returns: Found  6 space group operations
 (whereof  6 operations are pure point group operations),
 and found     1 'primitive' translations

 MACROSCOPIC STATIC DIELECTRIC TENSOR (including local field effects in DFT)
           5.302714    -0.000000    -0.000000
          -0.000000     5.302714    -0.000000
          -0.000000    -0.000000     5.302714

 PIEZOELECTRIC TENSOR  for field in x, y, z        (e  Angst)
          XX          YY          ZZ          XY          YZ          ZX
  x     0.00011    -0.00002    -0.00002     0.00005     0.00007     0.00005
  y    -0.00006     0.00025    -0.00006     0.00002     0.00002     0.00007
  z    -0.00043    -0.00043     0.00099     0.00000     0.00001     0.00001

 PIEZOELECTRIC TENSOR  for field in x, y, z        (C/m^2)
          XX          YY          ZZ          XY          YZ          ZX
  x     0.00013    -0.00005    -0.00005     0.00001     0.00001     0.00001
  y    -0.00005     0.00013    -0.00005     0.00001     0.00001     0.00001
  z    -0.00005    -0.00005     0.00013     0.00001     0.00001     0.00001

 BORN EFFECTIVE CHARGES (in e, cummulative output)
 ion    1
    1     2.03067    -0.00000    -0.00000
    2    -0.00000     2.03066    -0.00000
    3    -0.00000    -0.00000     2.03067
 ion    2
    1    -2.03067     0.00000     0.00000
    2     0.00000    -2.03066     0.00000
    3     0.00000     0.00000    -2.03067

 INTERNAL STRAIN TENSOR FOR ION    1 for displacements in x,y,z  (eV/Angst):
          X           Y           Z          XY          YZ          ZX
  x    -0.00002    -0.00007    -0.00007     0.00018    -0.00022     0.00018
  y    -0.00007    -0.00002    -0.00007     0.00018     0.00018    -0.00022
  z    -0.00007    -0.00007    -0.00002    -0.00022     0.00018     0.00018

 INTERNAL STRAIN TENSOR FOR ION    2 for displacements in x,y,z  (eV/Angst):
          X           Y           Z          XY          YZ          ZX
  x    -0.00019     0.00012     0.00012    -0.00057    -0.00007    -0.00056
  y     0.00012    -0.00019     0.00012    -0.00056    -0.00057    -0.00007
  z     0.00012     0.00012    -0.00019    -0.00007    -0.00056    -0.00057

 SECOND DERIVATIVES (NOT SYMMETRIZED)
               1X          1Y          1Z          2X          2Y          2Z
  1X    -0.248772    0.000056    0.000056    0.248772   -0.000056   -0.000056
  1Y     0.000056   -0.248772    0.000056   -0.000056    0.248772   -0.000056
  1Z     0.000056    0.000056   -0.248772   -0.000056   -0.000056    0.248772
  2X     0.253550    0.000030    0.000030   -0.253550   -0.000030   -0.000030
  2Y     0.000030    0.253550    0.000030   -0.000030   -0.253550   -0.000030
  2Z     0.000030    0.000030    0.253550   -0.000030   -0.000030   -0.253550

 Eigenvectors and eigenvalues of the dynamical matrix

   1 f  =    1.430272 THz     8.986665 2PiTHz   47.708741 cm-1     5.915132 meV
             X         Y         Z           dx          dy          dz
      0.000000  0.000000  0.000000     0.220126    0.220126    0.220126
      1.918734  1.918734  1.918734    -0.533740   -0.533740   -0.533740

[...]

   3 f  =    1.430121 THz     8.985716 2PiTHz   47.703704 cm-1     5.914508 meV
             X         Y         Z           dx          dy          dz
      0.000000  0.000000  0.000000     0.244501   -0.289317    0.044816
      1.918734  1.918734  1.918734    -0.592538    0.701148   -0.108610

   4 f/i=    0.004710 THz     0.029594 2PiTHz    0.157108 cm-1     0.019479 meV
             X         Y         Z           dx          dy          dz
      0.000000  0.000000  0.000000    -0.531057   -0.198947    0.730004
      1.918734  1.918734  1.918734    -0.219132   -0.082092    0.301224

[...]

   6 f/i=    0.004969 THz     0.031223 2PiTHz    0.165760 cm-1     0.020552 meV
             X         Y         Z           dx          dy          dz
      0.000000  0.000000  0.000000     0.533740    0.533740    0.533740
      1.918734  1.918734  1.918734     0.220126    0.220126    0.220126

 MACROSCOPIC STATIC DIELECTRIC TENSOR IONIC CONTRIBUTION
          52.569848     0.002546     0.002549
           0.002546    52.569840     0.002546
           0.002549     0.002546    52.569849

 ELASTIC MODULI IONIC CONTR (kBar)
 Direction    XX          YY          ZZ          XY          YZ          ZX
 XX          -0.0000      0.0000      0.0000     -0.0000      0.0000     -0.0000
 YY           0.0000     -0.0000      0.0000     -0.0000     -0.0000      0.0000
 ZZ           0.0000      0.0000     -0.0000      0.0000     -0.0000     -0.0000
 XY          -0.0000     -0.0000      0.0000     -0.0000     -0.0000     -0.0000
 YZ           0.0000     -0.0000     -0.0000     -0.0000     -0.0000     -0.0000
 ZX          -0.0000      0.0000     -0.0000     -0.0000     -0.0000     -0.0000

 PIEZOELECTRIC TENSOR IONIC CONTR  for field in x, y, z        (C/m^2)
          XX          YY          ZZ          XY          YZ          ZX
  x     0.00019    -0.00021    -0.00021     0.00086    -0.00017     0.00085
  y    -0.00021     0.00019    -0.00021     0.00085     0.00086    -0.00017
  z    -0.00021    -0.00021     0.00019    -0.00017     0.00085     0.00086