 vasp.5.4.4.18Apr17-6-g9f103f2a35 (build Aug 24 2017 11:22:49) complex

 executed on             LinuxIFC date 2023.12.25  13:07:11

 INCAR:
 POTCAR:    PAW_PBE Sn_d 06Sep2000
 POTCAR:    PAW_PBE O 08Apr2002

 POTCAR:    PAW_PBE Sn_d 06Sep2000
   VRHFIN =Sn: s2p2

   TITEL  = PAW_PBE Sn_d 06Sep2000
   POMASS =  118.710; ZVAL   =   14.000    mass and valenz
   ENMAX  =  241.083; ENMIN  =  180.812 eV

 POTCAR:    PAW_PBE O 08Apr2002
   VRHFIN =O: s2p4

   TITEL  = PAW_PBE O 08Apr2002
   POMASS =   16.000; ZVAL   =    6.000    mass and valenz
   ENMAX  =  400.000; ENMIN  =  300.000 eV

  PAW_PBE Sn_d 06Sep2000                :
  PAW_PBE O 08Apr2002                   :

 POSCAR: Sn2 O4
  positions in direct lattice
 exchange correlation table for  LEXCH =        8
   RHO(1)=    0.500       N(1)  =     2000
   RHO(2)=  100.500       N(2)  =     4000

 ion  position               nearest neighbor table
   1  0.500  0.500  0.500-   3 2.06   4 2.06   6 2.07   5 2.07   6 2.07   5 2.07   2 3.73   2 3.73
                             2 3.73   2 3.73   2 3.73   2 3.73   2 3.73   2 3.73
   2  0.000  0.000  0.000-   6 2.06   5 2.06   3 2.07   4 2.07   3 2.07   4 2.07   1 3.73   1 3.73
                             1 3.73   1 3.73   1 3.73   1 3.73   1 3.73   1 3.73
   3  0.806  0.194  0.500-   1 2.06   2 2.07   2 2.07
   4  0.194  0.806  0.500-   1 2.06   2 2.07   2 2.07
   5  0.306  0.306  0.000-   2 2.06   1 2.07   1 2.07
   6  0.694  0.694  0.000-   2 2.06   1 2.07   1 2.07

  LATTYP: Found a simple tetragonal cell.
 ALAT       =     4.7648176790
 C/A-ratio  =     0.6731631176

  Lattice vectors:

 A1 = (   4.7648176790,   0.0000000000,   0.0000000000)
 A2 = (   0.0000000000,   4.7648176790,   0.0000000000)
 A3 = (   0.0000000000,   0.0000000000,   3.2074995236)

Analysis of symmetry for initial positions (statically):
 Subroutine PRICEL returns:
 Original cell was already a primitive cell.

 Routine SETGRP: Setting up the symmetry group for a
 simple tetragonal supercell.

 Subroutine GETGRP returns: Found  2 space group operations
 (whereof  2 operations were pure point group operations)
 out of a pool of 16 trial point group operations.

The static configuration has the point symmetry C_1h.

Analysis of symmetry for dynamics (positions and initial velocities):
 Subroutine PRICEL returns:
 Original cell was already a primitive cell.

[...]

The dynamic configuration has the point symmetry C_1h.

 Subroutine INISYM returns: Found  2 space group operations
 (whereof  2 operations are pure point group operations),
 and found     1 'primitive' translations

 KPOINTS: pymatgen with grid density = 3000 / numb

Automatic generation of k-mesh.
Space group operators:
 irot       det(A)        alpha          n_x          n_y          n_z        tau_x        tau_y        tau_z
    1     1.000000     0.000000     1.000000     0.000000     0.000000     0.000000     0.000000     0.000000
    2    -1.000000   180.000000     0.707107    -0.707107     0.000000     0.000000     0.000000     0.000000

 Subroutine IBZKPT returns following result:

 Found    110 irreducible k-points:

 Following reciprocal coordinates:
            Coordinates               Weight
  0.000000  0.000000  0.000000      1.000000
  0.166667  0.000000  0.000000      4.000000
  0.333333  0.000000  0.000000      4.000000
  0.500000  0.000000  0.000000      2.000000
  0.166667  0.166667  0.000000      2.000000
  0.333333  0.166667  0.000000      4.000000
  0.500000  0.166667  0.000000      4.000000
 -0.333333  0.166667  0.000000      4.000000
 -0.166667  0.166667  0.000000      2.000000
  0.333333  0.333333  0.000000      2.000000
  0.500000  0.333333  0.000000      4.000000
 -0.333333  0.333333  0.000000      2.000000
  0.500000  0.500000  0.000000      1.000000
  0.000000  0.000000  0.100000      2.000000
  0.166667  0.000000  0.100000      4.000000
  0.333333  0.000000  0.100000      4.000000
  0.500000  0.000000  0.100000      4.000000
 -0.333333  0.000000  0.100000      4.000000
 -0.166667  0.000000  0.100000      4.000000
  0.166667  0.166667  0.100000      2.000000
  0.333333  0.166667  0.100000      4.000000
  0.500000  0.166667  0.100000      4.000000
 -0.333333  0.166667  0.100000      4.000000
 -0.166667  0.166667  0.100000      4.000000
  0.333333  0.333333  0.100000      2.000000
  0.500000  0.333333  0.100000      4.000000
 -0.333333  0.333333  0.100000      4.000000
 -0.166667  0.333333  0.100000      4.000000
  0.500000  0.500000  0.100000      2.000000
 -0.333333  0.500000  0.100000      4.000000
 -0.166667  0.500000  0.100000      4.000000
 -0.333333 -0.333333  0.100000      2.000000
 -0.166667 -0.333333  0.100000      4.000000
 -0.166667 -0.166667  0.100000      2.000000
  0.000000  0.000000  0.200000      2.000000
  0.166667  0.000000  0.200000      4.000000
  0.333333  0.000000  0.200000      4.000000
  0.500000  0.000000  0.200000      4.000000
 -0.333333  0.000000  0.200000      4.000000
 -0.166667  0.000000  0.200000      4.000000
  0.166667  0.166667  0.200000      2.000000
  0.333333  0.166667  0.200000      4.000000
  0.500000  0.166667  0.200000      4.000000
 -0.333333  0.166667  0.200000      4.000000
 -0.166667  0.166667  0.200000      4.000000
  0.333333  0.333333  0.200000      2.000000
  0.500000  0.333333  0.200000      4.000000
 -0.333333  0.333333  0.200000      4.000000
 -0.166667  0.333333  0.200000      4.000000
  0.500000  0.500000  0.200000      2.000000
 -0.333333  0.500000  0.200000      4.000000
 -0.166667  0.500000  0.200000      4.000000
 -0.333333 -0.333333  0.200000      2.000000
 -0.166667 -0.333333  0.200000      4.000000
 -0.166667 -0.166667  0.200000      2.000000
  0.000000  0.000000  0.300000      2.000000
  0.166667  0.000000  0.300000      4.000000
  0.333333  0.000000  0.300000      4.000000
  0.500000  0.000000  0.300000      4.000000
 -0.333333  0.000000  0.300000      4.000000
[...]
 -0.166667 -0.333333  0.400000      4.000000
 -0.166667 -0.166667  0.400000      2.000000
  0.000000  0.000000  0.500000      1.000000
  0.166667  0.000000  0.500000      4.000000
  0.333333  0.000000  0.500000      4.000000
  0.500000  0.000000  0.500000      2.000000
  0.166667  0.166667  0.500000      2.000000
  0.333333  0.166667  0.500000      4.000000
  0.500000  0.166667  0.500000      4.000000
 -0.333333  0.166667  0.500000      4.000000
 -0.166667  0.166667  0.500000      2.000000
  0.333333  0.333333  0.500000      2.000000
  0.500000  0.333333  0.500000      4.000000
 -0.333333  0.333333  0.500000      2.000000
  0.500000  0.500000  0.500000      1.000000

 Following cartesian coordinates:
            Coordinates               Weight
  0.000000  0.000000  0.000000      1.000000
  0.034979  0.000000  0.000000      4.000000
  0.069957  0.000000  0.000000      4.000000
  0.104936  0.000000  0.000000      2.000000
  0.034979  0.034979  0.000000      2.000000
  0.069957  0.034979  0.000000      4.000000
  0.104936  0.034979  0.000000      4.000000
 -0.069957  0.034979  0.000000      4.000000
 -0.034979  0.034979  0.000000      2.000000
  0.069957  0.069957  0.000000      2.000000
  0.104936  0.069957  0.000000      4.000000
 -0.069957  0.069957  0.000000      2.000000
  0.104936  0.104936  0.000000      1.000000
  0.000000  0.000000  0.031177      2.000000
  0.034979  0.000000  0.031177      4.000000
  0.069957  0.000000  0.031177      4.000000
  0.104936  0.000000  0.031177      4.000000
 -0.069957  0.000000  0.031177      4.000000
 -0.034979  0.000000  0.031177      4.000000
  0.034979  0.034979  0.031177      2.000000
  0.069957  0.034979  0.031177      4.000000
  0.104936  0.034979  0.031177      4.000000
 -0.069957  0.034979  0.031177      4.000000
 -0.034979  0.034979  0.031177      4.000000
  0.069957  0.069957  0.031177      2.000000
  0.104936  0.069957  0.031177      4.000000
 -0.069957  0.069957  0.031177      4.000000
 -0.034979  0.069957  0.031177      4.000000
  0.104936  0.104936  0.031177      2.000000
 -0.069957  0.104936  0.031177      4.000000
 -0.034979  0.104936  0.031177      4.000000
 -0.069957 -0.069957  0.031177      2.000000
 -0.034979 -0.069957  0.031177      4.000000
 -0.034979 -0.034979  0.031177      2.000000
  0.000000  0.000000  0.062354      2.000000
  0.034979  0.000000  0.062354      4.000000
  0.069957  0.000000  0.062354      4.000000
  0.104936  0.000000  0.062354      4.000000
 -0.069957  0.000000  0.062354      4.000000
 -0.034979  0.000000  0.062354      4.000000
  0.034979  0.034979  0.062354      2.000000
  0.069957  0.034979  0.062354      4.000000
  0.104936  0.034979  0.062354      4.000000
 -0.069957  0.034979  0.062354      4.000000
 -0.034979  0.034979  0.062354      4.000000
  0.069957  0.069957  0.062354      2.000000
  0.104936  0.069957  0.062354      4.000000
 -0.069957  0.069957  0.062354      4.000000
 -0.034979  0.069957  0.062354      4.000000
  0.104936  0.104936  0.062354      2.000000
 -0.069957  0.104936  0.062354      4.000000
 -0.034979  0.104936  0.062354      4.000000
 -0.069957 -0.069957  0.062354      2.000000
 -0.034979 -0.069957  0.062354      4.000000
 -0.034979 -0.034979  0.062354      2.000000
  0.000000  0.000000  0.093531      2.000000
  0.034979  0.000000  0.093531      4.000000
  0.069957  0.000000  0.093531      4.000000
  0.104936  0.000000  0.093531      4.000000
 -0.069957  0.000000  0.093531      4.000000
[...]
 -0.034979 -0.069957  0.124708      4.000000
 -0.034979 -0.034979  0.124708      2.000000
  0.000000  0.000000  0.155885      1.000000
  0.034979  0.000000  0.155885      4.000000
  0.069957  0.000000  0.155885      4.000000
  0.104936  0.000000  0.155885      2.000000
  0.034979  0.034979  0.155885      2.000000
  0.069957  0.034979  0.155885      4.000000
  0.104936  0.034979  0.155885      4.000000
 -0.069957  0.034979  0.155885      4.000000
 -0.034979  0.034979  0.155885      2.000000
  0.069957  0.069957  0.155885      2.000000
  0.104936  0.069957  0.155885      4.000000
 -0.069957  0.069957  0.155885      2.000000
  0.104936  0.104936  0.155885      1.000000

 Subroutine IBZKPT_HF returns following result:

 Found    360 k-points in 1st BZ
 the following    360 k-points will be used (e.g. in the exchange kernel)
 Following reciprocal coordinates:   # in IRBZ
  0.000000  0.000000  0.000000    0.00277778   1 t-inv F
  0.166667  0.000000  0.000000    0.00277778   2 t-inv F
  0.333333  0.000000  0.000000    0.00277778   3 t-inv F
  0.500000  0.000000  0.000000    0.00277778   4 t-inv F
  0.166667  0.166667  0.000000    0.00277778   5 t-inv F
  0.333333  0.166667  0.000000    0.00277778   6 t-inv F
  0.500000  0.166667  0.000000    0.00277778   7 t-inv F
 -0.333333  0.166667  0.000000    0.00277778   8 t-inv F
 -0.166667  0.166667  0.000000    0.00277778   9 t-inv F
  0.333333  0.333333  0.000000    0.00277778  10 t-inv F
  0.500000  0.333333  0.000000    0.00277778  11 t-inv F
 -0.333333  0.333333  0.000000    0.00277778  12 t-inv F
  0.500000  0.500000  0.000000    0.00277778  13 t-inv F
  0.000000  0.000000  0.100000    0.00277778  14 t-inv F
  0.166667  0.000000  0.100000    0.00277778  15 t-inv F
  0.333333  0.000000  0.100000    0.00277778  16 t-inv F
[...]

[...]

 MACROSCOPIC STATIC DIELECTRIC TENSOR (including local field effects in DFT)
           4.369995     0.000001    -0.000000
           0.000001     4.369995    -0.000000
           0.000001     0.000001     4.663143

 Linear response:
   Degrees of freedom DOF   =           11
 Linear response progress:
  Degree of freedom:   1/ 11
  LATTYP: Found a simple tetragonal cell.
 ALAT       =     4.7648176790
 C/A-ratio  =     0.6731631176

[...]

 INTERNAL STRAIN TENSOR  FOR ION    1  DIRECTION 1   (eV/Angst):
     0.00077  0.00080 -0.00217
     0.00079 -0.00180 -0.00031
    -0.00217 -0.00031  0.00073

 POSITION                   FORCE-CONSTANT FOR ION    1 DIRECTION 1 (eV/Angst/Angst)
      2.38241      2.38241      1.60375       -24.005220     -0.547709      0.000317
      0.00000      0.00000      0.00000         9.214663     -0.000021     -0.000060
      3.84031      0.92451      1.60375         2.808277     -3.734960      0.000429
      0.92451      3.84031      1.60375         2.808158     -3.734424     -0.000537
      1.45790      1.45790      0.00000         4.587135      4.008717     -0.001352
      3.30692      3.30692      0.00000         4.586986      4.008397      0.001203
    total drift:                                0.000000     -0.000000      0.000000

 BORN EFFECTIVE CHARGE FOR ION    1 DIRECTION 1 :   4.096  -0.462   0.000
                   rigid augmentation           :  -7.640   0.000   0.000
                   ionic contribution           :  14.000   0.000   0.000
                   Berry contribution           :  -2.263  -0.462   0.000

 Linear response progress:
  Degree of freedom:   2/ 11
  LATTYP: Found a simple tetragonal cell.
 ALAT       =     4.7648176790
 C/A-ratio  =     0.6731631176

[...]

The dynamic configuration has the point symmetry C_1 .

[...]

 Linear response progress:
  Degree of freedom:  11/ 11
  LATTYP: Found a simple tetragonal cell.
 ALAT       =     4.7648176790
 C/A-ratio  =     0.6731631176

[...]

----------------------------------------- Iteration   21(  14)  ---------------------------------------

 Broyden mixing:
  rms(total) = 0.66403E-06    rms(broyden)= 0.66344E-06
  rms(prec ) = 0.84041E-06
  weight for this iteration     100.00

 eigenvalues of (default mixing * dielectric matrix)
  average eigenvalue GAMMA=   1.6124
  2.8811  2.6565  2.4823  2.1495  2.1495  1.8929  1.0006  0.9992  0.9992  0.8792
  0.7332  0.5260

 Free energy of the ion-electron system (eV)
  -Hartree energ DENC   =        -0.12316895
  -V(xc)+E(xc)   XCENC  =         0.00113940
  PAW double counting   =         0.00530967       -0.00532280
  entropy T*S    EENTRO =        -0.00000000
  eigenvalues    EBANDS =        -0.24028234
  free energy    TOTEN  =        -0.36232502 eV

  energy without entropy =       -0.36232502

[...]

 k-point 110 :       0.5000    0.5000    0.5000
  band No.  band energies     occupation
      1       0.0000      0.00000
      2      -0.0001      0.00000
      3      -0.2807      0.00000
      4       0.2807      0.00000
      5       0.0000      0.00000
      6      -0.0001      0.00000
      7      -0.0094      0.00000
      8       0.0093      0.00000
      9      -0.0049      0.00000
     10       0.0048      0.00000
     11      -0.6026      0.00000
     12       0.6027      0.00000
     13      -0.0000      0.00000
     14       0.0001      0.00000
     15      -0.6782      0.00000
     16       0.6783      0.00000
     17       0.0001      0.00000
     18       0.0001      0.00000
     19      -0.0000      0.00000
     20       0.0001      0.00000
     21      -0.1720      0.00000
     22       0.1721      0.00000
     23       0.0000      0.00000
     24       0.0001      0.00000
     25      -0.0443      0.00000
     26       0.0445      0.00000
     27       0.0063      0.00000
     28      -0.0062      0.00000
     29      -0.0000      0.00000
     30       0.0001      0.00000
     31      -0.1203      0.00000
     32       0.0855      0.00000

------------------------ aborting loop because EDIFF is reached ----------------------------------------

 INTERNAL STRAIN TENSOR  FOR ION    6  DIRECTION 3   (eV/Angst):
     0.00021 -0.00553 -5.99800
    -0.00553  0.00021 -5.99800
    -5.42567 -5.42567 -0.00412

 POSITION                   FORCE-CONSTANT FOR ION    6 DIRECTION 3 (eV/Angst/Angst)
      2.38241      2.38241      1.60375        -0.000282     -0.000282      9.638535
      0.00000      0.00000      0.00000        -0.000206     -0.000206      0.248469
      3.84031      0.92451      1.60375         0.000169     -0.000014      1.785578
      0.92451      3.84031      1.60375        -0.000014      0.000169      1.785578
      1.45790      1.45790      0.00000        -0.000169     -0.000169     -0.348176
      3.30692      3.30692      0.00000         0.000502      0.000502    -13.109985
    total drift:                               -0.000000     -0.000000      0.000000

 BORN EFFECTIVE CHARGE FOR ION    6 DIRECTION 3 :  -0.000  -0.000  -2.237
                   rigid augmentation           :   0.000   0.000  -0.639
                   ionic contribution           :   0.000   0.000   6.000
                   Berry contribution           :  -0.000  -0.000  -7.598

  LATTYP: Found a simple tetragonal cell.
 ALAT       =     4.7648176790
 C/A-ratio  =     0.6731631176

  Lattice vectors:

 A1 = (   4.7648176790,   0.0000000000,   0.0000000000)
 A2 = (   0.0000000000,   4.7648176790,   0.0000000000)
 A3 = (   0.0000000000,   0.0000000000,   3.2074995236)

Analysis of symmetry for initial positions (statically):
 Subroutine PRICEL returns:
 Original cell was already a primitive cell.

[...]

The static configuration has the point symmetry C_1h.

Analysis of symmetry for dynamics (positions and initial velocities):
 Subroutine PRICEL returns:
 Original cell was already a primitive cell.

 Routine SETGRP: Setting up the symmetry group for a
 simple tetragonal supercell.

 Subroutine GETGRP returns: Found  2 space group operations
 (whereof  2 operations were pure point group operations)
 out of a pool of 16 trial point group operations.

The dynamic configuration has the point symmetry C_1h.

 Subroutine INISYM returns: Found  2 space group operations
 (whereof  2 operations are pure point group operations),
 and found     1 'primitive' translations

 MACROSCOPIC STATIC DIELECTRIC TENSOR (including local field effects in DFT)
           4.369995     0.000001    -0.000000
           0.000001     4.369995    -0.000000
           0.000001     0.000001     4.663143

 PIEZOELECTRIC TENSOR  for field in x, y, z        (e  Angst)
          XX          YY          ZZ          XY          YZ          ZX
  x    -0.00001     0.00002     0.00007    -0.00005     0.00000     0.00003
  y     0.00011    -0.00011     0.00013    -0.00006     0.00003    -0.00000
  z     0.00031     0.00031    -0.00091     0.00000    -0.00004    -0.00004

 PIEZOELECTRIC TENSOR  for field in x, y, z        (C/m^2)
          XX          YY          ZZ          XY          YZ          ZX
  x    -0.00001     0.00001     0.00002    -0.00001    -0.00000     0.00001
  y     0.00001    -0.00001     0.00002    -0.00001     0.00001    -0.00000
  z     0.00007     0.00007    -0.00020     0.00000    -0.00001    -0.00001

 BORN EFFECTIVE CHARGES (in e, cummulative output)
 ion    1
    1     4.09645    -0.46178     0.00000
    2    -0.46178     4.09645     0.00000
    3    -0.00000    -0.00000     4.47400
 ion    2
    1     4.09645     0.46178     0.00000
    2     0.46178     4.09645     0.00000
    3    -0.00000    -0.00000     4.47400
 ion    3
    1    -2.04821     0.71349    -0.00005
    2     0.71344    -2.04824     0.00005
    3     0.00010    -0.00010    -2.23700
 ion    4
    1    -2.04824     0.71344     0.00005
    2     0.71349    -2.04821    -0.00005
    3    -0.00010     0.00010    -2.23700
 ion    5
    1    -2.04823    -0.71345    -0.00005
    2    -0.71347    -2.04822    -0.00005
    3     0.00010     0.00010    -2.23700
 ion    6
    1    -2.04822    -0.71349     0.00005
    2    -0.71347    -2.04824     0.00005
    3    -0.00010    -0.00010    -2.23700

 INTERNAL STRAIN TENSOR FOR ION    1 for displacements in x,y,z  (eV/Angst):
          X           Y           Z          XY          YZ          ZX
  x     0.00077    -0.00180     0.00073     0.00079    -0.00031    -0.00217
  y    -0.00180     0.00077     0.00073     0.00080    -0.00217    -0.00031
  z    -0.00035    -0.00035     0.01084     0.00670    -0.00071    -0.00070

[...]

 INTERNAL STRAIN TENSOR FOR ION    6 for displacements in x,y,z  (eV/Angst):
          X           Y           Z          XY          YZ          ZX
  x    -1.47914    -0.50976    -5.26200     2.53817     0.09177    -0.08708
  y    -0.50976    -1.47914    -5.26200     2.53107     0.08158    -0.09248
  z     0.00021     0.00021    -0.00412    -0.00553    -5.42567    -5.99800

 SECOND DERIVATIVES (NOT SYMMETRIZED)
               1X          1Y          1Z          2X          2Y          2Z          3X          3Y          3Z          4X          4Y          4Z          5X          5Y          5Z          6X          6Y          6Z
  1X   -24.005220   -0.547709    0.000317    9.214663   -0.000021   -0.000060    2.808277   -3.734960    0.000429    2.808158   -3.734424   -0.000537    4.587135    4.008717   -0.001352    4.586986    4.008397    0.001203
  1Y    -0.547709  -24.005220    0.000317   -0.000021    9.214663   -0.000060   -3.734424    2.808158   -0.000537   -3.734960    2.808277    0.000429    4.008717    4.587135   -0.001352    4.008397    4.586986    0.001203
  1Z     0.000006    0.000006  -20.064546   -0.000006   -0.000006    0.206708   -0.000272    0.000258    0.269055    0.000258   -0.000272    0.269055   -0.000194   -0.000194    9.659784    0.000208    0.000208    9.659943
  2X     9.214552    0.000105   -0.000029  -24.004634    0.547519    0.000224    4.586894   -4.008303   -0.001307    4.586902   -4.008777    0.001233    2.808042    3.734580    0.000420    2.808245    3.734875   -0.000540
  2Y     0.000105    9.214552   -0.000029    0.547519  -24.004634    0.000224   -4.008777    4.586902    0.001233   -4.008303    4.586894   -0.001307    3.734580    2.808042    0.000420    3.734875    2.808245   -0.000540
  2Z    -0.000000   -0.000000    0.206828   -0.000030   -0.000030  -20.065578   -0.000182    0.000195    9.660097    0.000195   -0.000182    9.660097   -0.000258   -0.000258    0.269171    0.000276    0.000276    0.269386
  3X     2.787080   -3.733187   -0.000374    4.571574   -4.011799    0.000090  -13.447763    9.981602    0.000680    2.477011   -2.234867   -0.000265    3.939543    0.439834    0.000027   -0.327445   -0.441583   -0.000159
  3Y    -3.733455    2.786886    0.000348   -4.011800    4.571761   -0.000134    9.981879  -13.447722   -0.000493   -2.234870    2.477009    0.000220   -0.441559   -0.327391    0.000122    0.439806    3.939458   -0.000062
  3Z     0.000112   -0.000156    0.248494    0.000242   -0.000237    9.638643   -0.000242    0.000349  -13.109931    0.000096   -0.000146   -0.348213   -0.000001    0.000200    1.785461   -0.000207   -0.000010    1.785546
  4X     2.786886   -3.733455    0.000348    4.571761   -4.011800   -0.000134    2.477009   -2.234870    0.000220  -13.447722    9.981879   -0.000493   -0.327391   -0.441559    0.000122    3.939458    0.439806   -0.000062
  4Y    -3.733187    2.787080   -0.000374   -4.011799    4.571574    0.000090   -2.234867    2.477011   -0.000265    9.981602  -13.447763    0.000680    0.439834    3.939543    0.000027   -0.441583   -0.327445   -0.000159
  4Z    -0.000156    0.000112    0.248494   -0.000237    0.000242    9.638643   -0.000146    0.000096   -0.348213    0.000349   -0.000242  -13.109931    0.000200   -0.000001    1.785461   -0.000010   -0.000207    1.785546
  5X     4.571587    4.011680   -0.000005    2.787208    3.733452   -0.000424    3.939357   -0.439741    0.000000   -0.327348    0.441618   -0.000167  -13.447922   -9.981816    0.000876    2.477118    2.234807   -0.000280
  5Y     4.011680    4.571587   -0.000005    3.733452    2.787208   -0.000424    0.441618   -0.327348   -0.000167   -0.439741    3.939357    0.000000   -9.981816  -13.447922    0.000876    2.234807    2.477118   -0.000280
  5Z     0.000305    0.000305    9.638791    0.000246    0.000246    0.248503    0.000061   -0.000162    1.785522   -0.000162    0.000061    1.785522   -0.000578   -0.000578  -13.109978    0.000127    0.000127   -0.348359
  6X     4.571658    4.011818   -0.000129    2.786917    3.733186    0.000352   -0.327449    0.441565    0.000154    3.939514   -0.439855   -0.000033    2.476997    2.234835    0.000213  -13.447636   -9.981549   -0.000558
  6Y     4.011818    4.571658   -0.000129    3.733186    2.786917    0.000352   -0.439855    3.939514   -0.000033    0.441565   -0.327449    0.000154    2.234835    2.476997    0.000213   -9.981549  -13.447636   -0.000558
  6Z    -0.000282   -0.000282    9.638535   -0.000206   -0.000206    0.248469    0.000169   -0.000014    1.785578   -0.000014    0.000169    1.785578   -0.000169   -0.000169   -0.348176    0.000502    0.000502  -13.109985

 Eigenvectors and eigenvalues of the dynamical matrix

   1 f  =   22.549926 THz   141.685365 2PiTHz  752.184550 cm-1    93.259032 meV
             X         Y         Z           dx          dy          dz
      2.382409  2.382409  1.603750    -0.000001   -0.000001    0.000006
      0.000000  0.000000  0.000000     0.000002    0.000002   -0.000006
      3.840311  0.924507  1.603750     0.353556   -0.353552    0.000005
      0.924507  3.840311  1.603750    -0.353552    0.353556    0.000005
      1.457902  1.457902  0.000000    -0.353559   -0.353559   -0.000005
      3.306916  3.306916  0.000000     0.353547    0.353547   -0.000010

[...]

  15 f  =    2.220370 THz    13.950996 2PiTHz   74.063570 cm-1     9.182716 meV
             X         Y         Z           dx          dy          dz
      2.382409  2.382409  1.603750     0.000044   -0.000044    0.000000
      0.000000  0.000000  0.000000     0.000061   -0.000061    0.000000
      3.840311  0.924507  1.603750     0.353576    0.353541    0.000005
      0.924507  3.840311  1.603750    -0.353541   -0.353576   -0.000005
      1.457902  1.457902  0.000000     0.353560   -0.353560    0.000000
      3.306916  3.306916  0.000000    -0.353537    0.353537    0.000000

  16 f/i=    0.012026 THz     0.075560 2PiTHz    0.401136 cm-1     0.049735 meV
             X         Y         Z           dx          dy          dz
      2.382409  2.382409  1.603750    -0.000427   -0.000427    0.627296
      0.000000  0.000000  0.000000    -0.000426   -0.000426    0.627265
      3.840311  0.924507  1.603750    -0.000159   -0.000152    0.230778
      0.924507  3.840311  1.603750    -0.000152   -0.000159    0.230778
      1.457902  1.457902  0.000000    -0.000161   -0.000161    0.230781
      3.306916  3.306916  0.000000    -0.000152   -0.000152    0.230784

[...]

  18 f/i=    0.019721 THz     0.123911 2PiTHz    0.657823 cm-1     0.081560 meV
             X         Y         Z           dx          dy          dz
      2.382409  2.382409  1.603750    -0.443120   -0.443120   -0.000605
      0.000000  0.000000  0.000000    -0.443238   -0.443238   -0.000601
      3.840311  0.924507  1.603750    -0.164252   -0.164252   -0.000221
      0.924507  3.840311  1.603750    -0.164252   -0.164252   -0.000221
      1.457902  1.457902  0.000000    -0.163134   -0.163134   -0.000226
      3.306916  3.306916  0.000000    -0.163136   -0.163136   -0.000217

 MACROSCOPIC STATIC DIELECTRIC TENSOR IONIC CONTRIBUTION
           8.818428     0.000012     0.000053
           0.000012     8.818430     0.000053
           0.000053     0.000053     5.016484

 ELASTIC MODULI IONIC CONTR (kBar)
 Direction    XX          YY          ZZ          XY          YZ          ZX
 XX        -135.5722    120.4317    -40.0575     -0.3235    -10.5101    -11.7962
 YY         120.4317   -135.5722    -40.0575      0.3273     11.1277     11.1294
 ZZ         -40.0575    -40.0575   -211.9611      0.0139      1.6622     -1.7334
 XY          -0.3235      0.3273      0.0139    -33.9805     -1.2069      1.1643
 YZ         -10.5101     11.1277      1.6622     -1.2069   -204.0104     -1.0069
 ZX         -11.7962     11.1294     -1.7334      1.1643     -1.0069   -249.2216

 PIEZOELECTRIC TENSOR IONIC CONTR  for field in x, y, z        (C/m^2)
          XX          YY          ZZ          XY          YZ          ZX
  x     0.00003    -0.00003    -0.00001     0.00013     0.00001     0.00035
  y    -0.00005     0.00005    -0.00001     0.00013     0.00035     0.00001
  z    -0.00004    -0.00004     0.00104    -0.00002    -0.00008    -0.00008