 vasp.5.4.4.18Apr17-6-g9f103f2a35 (build Aug 24 2017 11:22:49) complex

 executed on             LinuxIFC date 2023.12.25  13:07:33

 INCAR:
 POTCAR:    PAW_PBE Sr_sv 07Sep2000
 POTCAR:    PAW_PBE Se 06Sep2000

 POTCAR:    PAW_PBE Sr_sv 07Sep2000
   VRHFIN =Sr: 4s4p5s

   TITEL  = PAW_PBE Sr_sv 07Sep2000
   POMASS =   87.620; ZVAL   =   10.000    mass and valenz
   ENMAX  =  229.353; ENMIN  =  172.014 eV

 POTCAR:    PAW_PBE Se 06Sep2000
   VRHFIN =Se: s2p4

   TITEL  = PAW_PBE Se 06Sep2000
   POMASS =   78.960; ZVAL   =    6.000    mass and valenz
   ENMAX  =  211.555; ENMIN  =  158.666 eV

  PAW_PBE Sr_sv 07Sep2000               :
  PAW_PBE Se 06Sep2000                  :

 POSCAR: Sr1 Se1
  positions in direct lattice
 exchange correlation table for  LEXCH =        8
   RHO(1)=    0.500       N(1)  =     2000
   RHO(2)=  100.500       N(2)  =     4000

 ion  position               nearest neighbor table
   1  0.000  0.000  0.000-   2 3.14   2 3.14   2 3.14   2 3.14   2 3.14   2 3.14
   2  0.500  0.500  0.500-   1 3.14   1 3.14   1 3.14   1 3.14   1 3.14   1 3.14

  LATTYP: Found a face centered cubic cell.
 ALAT       =     6.2794212661

  Lattice vectors:

 A1 = (  -3.1397106330,   0.0000000000,   3.1397106330)
 A2 = (   0.0000000000,   3.1397106330,   3.1397106330)
 A3 = (  -3.1397106330,   3.1397106330,   0.0000000000)

Analysis of symmetry for initial positions (statically):
 Subroutine PRICEL returns:
 Original cell was already a primitive cell.

 Routine SETGRP: Setting up the symmetry group for a
 face centered cubic supercell.

 Subroutine GETGRP returns: Found  8 space group operations
 (whereof  8 operations were pure point group operations)
 out of a pool of 48 trial point group operations.

The static configuration has the point symmetry C_4v.

Analysis of symmetry for dynamics (positions and initial velocities):
 Subroutine PRICEL returns:
 Original cell was already a primitive cell.

[...]

The dynamic configuration has the point symmetry C_4v.

 Subroutine INISYM returns: Found  8 space group operations
 (whereof  8 operations are pure point group operations),
 and found     1 'primitive' translations

 KPOINTS: pymatgen with grid density = 3000 / numb

Automatic generation of k-mesh.
Space group operators:
 irot       det(A)        alpha          n_x          n_y          n_z        tau_x        tau_y        tau_z
    1     1.000000     0.000001     1.000000     0.000000     0.000000     0.000000     0.000000     0.000000
    2     1.000000    90.000000    -1.000000    -0.000000     0.000000     0.000000     0.000000     0.000000
    3    -1.000000   180.000000     0.000000     0.000000     1.000000     0.000000     0.000000     0.000000
    4    -1.000000   180.000000     0.000000     0.707107     0.707107     0.000000     0.000000     0.000000
    5    -1.000000   180.000000     0.000000    -1.000000     0.000000     0.000000     0.000000     0.000000
    6     1.000000    90.000000     1.000000     0.000000    -0.000000     0.000000     0.000000     0.000000
    7     1.000000   180.000000     1.000000     0.000000     0.000000     0.000000     0.000000     0.000000
    8    -1.000000   180.000000     0.000000    -0.707107     0.707107     0.000000     0.000000     0.000000

 Subroutine IBZKPT returns following result:

 Found    163 irreducible k-points:

 Following reciprocal coordinates:
            Coordinates               Weight
  0.000000  0.000000  0.000000      1.000000
  0.083333  0.000000  0.000000      8.000000
  0.166667 -0.000000  0.000000      8.000000
  0.250000  0.000000  0.000000      8.000000
  0.333333 -0.000000 -0.000000      8.000000
  0.416667  0.000000  0.000000      8.000000
  0.500000  0.000000  0.000000      4.000000
  0.083333  0.083333  0.000000      4.000000
  0.166667  0.083333  0.000000     16.000000
  0.250000  0.083333  0.000000     16.000000
  0.333333  0.083333  0.000000     16.000000
  0.416667  0.083333  0.000000     16.000000
  0.500000  0.083333  0.000000     16.000000
 -0.416667  0.083333 -0.000000     16.000000
 -0.333333  0.083333  0.000000     16.000000
 -0.250000  0.083333  0.000000     16.000000
 -0.166667  0.083333 -0.000000     16.000000
 -0.083333  0.083333 -0.000000      8.000000
  0.166667  0.166667  0.000000      4.000000
  0.250000  0.166667  0.000000     16.000000
  0.333333  0.166667  0.000000     16.000000
  0.416667  0.166667  0.000000     16.000000
  0.500000  0.166667 -0.000000     16.000000
 -0.416667  0.166667 -0.000000     16.000000
 -0.333333  0.166667 -0.000000     16.000000
 -0.250000  0.166667 -0.000000     16.000000
 -0.166667  0.166667 -0.000000      8.000000
  0.250000  0.250000  0.000000      4.000000
  0.333333  0.250000  0.000000     16.000000
  0.416667  0.250000  0.000000     16.000000
  0.500000  0.250000  0.000000     16.000000
 -0.416667  0.250000 -0.000000     16.000000
 -0.333333  0.250000  0.000000     16.000000
 -0.250000  0.250000 -0.000000      8.000000
  0.333333  0.333333  0.000000      4.000000
  0.416667  0.333333  0.000000     16.000000
  0.500000  0.333333  0.000000     16.000000
 -0.416667  0.333333 -0.000000     16.000000
 -0.333333  0.333333  0.000000      8.000000
  0.416667  0.416667  0.000000      4.000000
  0.500000  0.416667  0.000000     16.000000
 -0.416667  0.416667 -0.000000      8.000000
  0.500000  0.500000  0.000000      2.000000
  0.083333  0.000000  0.083333      2.000000
  0.166667  0.000000  0.083333      8.000000
  0.250000  0.000000  0.083333      8.000000
  0.333333  0.000000  0.083333      8.000000
  0.416667  0.000000  0.083333      8.000000
  0.500000  0.000000  0.083333      8.000000
 -0.416667  0.000000  0.083333      8.000000
 -0.333333 -0.000000  0.083333      8.000000
 -0.250000  0.000000  0.083333      8.000000
 -0.166667 -0.000000  0.083333      8.000000
 -0.083333 -0.000000  0.083333      4.000000
  0.250000  0.166667  0.083333      8.000000
  0.333333  0.166667  0.083333     16.000000
  0.416667  0.166667  0.083333     16.000000
  0.500000  0.166667  0.083333     16.000000
 -0.416667  0.166667  0.083333      8.000000
  0.166667  0.250000  0.083333      8.000000
[...]
  0.333333 -0.083333  0.250000      8.000000
  0.333333  0.000000  0.333333      2.000000
  0.416667  0.000000  0.333333      8.000000
  0.500000  0.000000  0.333333      8.000000
 -0.416667 -0.000000  0.333333      8.000000
 -0.333333  0.000000  0.333333      4.000000
  0.416667 -0.250000  0.333333      8.000000
  0.416667 -0.166667  0.333333     16.000000
  0.500000 -0.166667  0.333333      4.000000
  0.416667 -0.083333  0.333333      8.000000
  0.416667  0.000000  0.416667      2.000000
  0.500000  0.000000  0.416667      8.000000
 -0.416667  0.000000  0.416667      4.000000
  0.500000 -0.083333  0.416667      4.000000
  0.500000  0.000000  0.500000      1.000000

 Following cartesian coordinates:
            Coordinates               Weight
  0.000000  0.000000  0.000000      1.000000
 -0.013271 -0.013271  0.013271      8.000000
 -0.026542 -0.026542  0.026542      8.000000
 -0.039813 -0.039813  0.039813      8.000000
 -0.053083 -0.053083  0.053083      8.000000
 -0.066354 -0.066354  0.066354      8.000000
 -0.079625 -0.079625  0.079625      4.000000
  0.000000  0.000000  0.026542      4.000000
 -0.013271 -0.013271  0.039813     16.000000
 -0.026542 -0.026542  0.053083     16.000000
 -0.039813 -0.039813  0.066354     16.000000
 -0.053083 -0.053083  0.079625     16.000000
 -0.066354 -0.066354  0.092896     16.000000
  0.079625  0.079625 -0.053083     16.000000
  0.066354  0.066354 -0.039813     16.000000
  0.053083  0.053083 -0.026542     16.000000
  0.039813  0.039813 -0.013271     16.000000
  0.026542  0.026542  0.000000      8.000000
  0.000000  0.000000  0.053083      4.000000
 -0.013271 -0.013271  0.066354     16.000000
 -0.026542 -0.026542  0.079625     16.000000
 -0.039813 -0.039813  0.092896     16.000000
 -0.053083 -0.053083  0.106167     16.000000
  0.092896  0.092896 -0.039813     16.000000
  0.079625  0.079625 -0.026542     16.000000
  0.066354  0.066354 -0.013271     16.000000
  0.053083  0.053083  0.000000      8.000000
 -0.000000  0.000000  0.079625      4.000000
 -0.013271 -0.013271  0.092896     16.000000
 -0.026542 -0.026542  0.106167     16.000000
 -0.039813 -0.039813  0.119438     16.000000
  0.106167  0.106167 -0.026542     16.000000
  0.092896  0.092896 -0.013271     16.000000
  0.079625  0.079625  0.000000      8.000000
  0.000000  0.000000  0.106167      4.000000
 -0.013271 -0.013271  0.119438     16.000000
 -0.026542 -0.026542  0.132709     16.000000
  0.119438  0.119438 -0.013271     16.000000
  0.106167  0.106167 -0.000000      8.000000
 -0.000000  0.000000  0.132709      4.000000
 -0.013271 -0.013271  0.145979     16.000000
  0.132709  0.132709  0.000000      8.000000
 -0.000000  0.000000  0.159250      2.000000
 -0.026542  0.000000  0.000000      2.000000
 -0.039813 -0.013271  0.013271      8.000000
 -0.053083 -0.026542  0.026542      8.000000
 -0.066354 -0.039813  0.039813      8.000000
 -0.079625 -0.053083  0.053083      8.000000
 -0.092896 -0.066354  0.066354      8.000000
  0.053083  0.079625 -0.079625      8.000000
  0.039813  0.066354 -0.066354      8.000000
  0.026542  0.053083 -0.053083      8.000000
  0.013271  0.039813 -0.039813      8.000000
  0.000000  0.026542 -0.026542      4.000000
 -0.026542  0.000000  0.053083      8.000000
 -0.039813 -0.013271  0.066354     16.000000
 -0.053083 -0.026542  0.079625     16.000000
 -0.066354 -0.039813  0.092896     16.000000
  0.079625  0.106167 -0.053083      8.000000
 -0.000000  0.026542  0.053083      8.000000
[...]
 -0.106167 -0.026542  0.000000      8.000000
 -0.106167  0.000000  0.000000      2.000000
 -0.119438 -0.013271  0.013271      8.000000
 -0.132709 -0.026542  0.026542      8.000000
  0.013271  0.119438 -0.119438      8.000000
 -0.000000  0.106167 -0.106167      4.000000
 -0.159250 -0.053083 -0.026542      8.000000
 -0.145979 -0.039813 -0.013271     16.000000
 -0.159250 -0.053083 -0.000000      4.000000
 -0.132709 -0.026542  0.000000      8.000000
 -0.132709  0.000000  0.000000      2.000000
 -0.145979 -0.013271  0.013271      8.000000
  0.000000  0.132709 -0.132709      4.000000
 -0.159250 -0.026542  0.000000      4.000000
 -0.159250  0.000000  0.000000      1.000000

 Subroutine IBZKPT_HF returns following result:

 Found   1728 k-points in 1st BZ
 the following   1728 k-points will be used (e.g. in the exchange kernel)
 Following reciprocal coordinates:   # in IRBZ
  0.000000  0.000000  0.000000    0.00057870   1 t-inv F
  0.083333  0.000000  0.000000    0.00057870   2 t-inv F
  0.166667 -0.000000  0.000000    0.00057870   3 t-inv F
  0.250000  0.000000  0.000000    0.00057870   4 t-inv F
  0.333333 -0.000000 -0.000000    0.00057870   5 t-inv F
  0.416667  0.000000  0.000000    0.00057870   6 t-inv F
  0.500000  0.000000  0.000000    0.00057870   7 t-inv F
  0.083333  0.083333  0.000000    0.00057870   8 t-inv F
  0.166667  0.083333  0.000000    0.00057870   9 t-inv F
  0.250000  0.083333  0.000000    0.00057870  10 t-inv F
  0.333333  0.083333  0.000000    0.00057870  11 t-inv F
  0.416667  0.083333  0.000000    0.00057870  12 t-inv F
[...]
      9       4.4470      0.00000
     10       5.5418      0.00000
     11       5.5418      0.00000
     12       5.5418      0.00000
     13       6.3543      0.00000
     14       6.3543      0.00000
     15      10.4460      0.00000
     16      15.6717      0.00000

[...]

 soft charge-density along one line, spin component           1
         0         1         2         3         4         5         6         7         8         9
 total charge-density along one line

------------------------ aborting loop because EDIFF is reached ----------------------------------------

  FORCE on cell =-STRESS in cart. coord.  units (eV):
  Direction    XX          YY          ZZ          XY          YZ          ZX
  Alpha Z    63.47967    63.47967    63.47967
  Ewald    -288.29342  -288.29342  -288.29342    -0.00000    -0.00000     0.00000
  Hartree    65.51276    65.51276    65.51276    -0.00000     0.00000    -0.00000
  E(xc)     -60.19179   -60.19179   -60.19179    -0.00000     0.00000    -0.00000
  Local      19.23136    19.23136    19.23136    -0.00000     0.00000    -0.00000
  n-local    -6.68625    -6.83573    -6.53678     0.35094    -0.05677    -0.11169
  augment    -0.38397    -0.38397    -0.38397     0.00000    -0.00000     0.00000
  Kinetic   207.51350   208.25304   206.77395    -5.06074     0.70693     1.84820
  Fock        0.00000     0.00000     0.00000     0.00000     0.00000     0.00000
  Total       0.18184     0.18184     0.18184     0.00000     0.00000     0.00000
  in kB       4.70655     4.70655     4.70655     0.00000     0.00000     0.00000

 VOLUME and BASIS-vectors are now :
  energy-cutoff  :      520.00
  volume of cell :       61.90
      direct lattice vectors                 reciprocal lattice vectors
    -3.139710633  0.000000000  3.139710633    -0.159250345 -0.159250345  0.159250345
     0.000000000  3.139710633  3.139710633     0.159250345  0.159250345  0.159250345
    -3.139710633  3.139710633  0.000000000    -0.159250345  0.159250345 -0.159250345

  length of vectors
     4.440221359  4.440221359  4.440221359     0.275829688  0.275829688  0.275829688

 FORCES acting on ions
    electron-ion (+dipol)            ewald-force                    non-local-force                 convergence-correction
   -.146E-04 -.812E-14 -.314E-15   0.141E-04 -.237E-14 -.457E-14   0.120E-05 0.230E-23 -.131E-23   -.564E-07 -.101E-13 -.227E-13
   0.141E-04 0.362E-12 0.124E-13   -.141E-04 0.213E-14 0.477E-14   -.689E-06 0.454E-23 -.486E-23   0.150E-07 -.122E-12 -.123E-12
   -.472E-06 0.354E-12 0.121E-13   -.290E-15 -.241E-15 0.208E-15   0.506E-06 0.683E-23 -.616E-23   -.414E-07 -.133E-12 -.146E-12

 POSITION                                       TOTAL-FORCE (eV/Angst)
      0.00000      0.00000      0.00000         0.000001     -0.000000     -0.000000
     -3.13971      3.13971      3.13971        -0.000001      0.000000      0.000000
    total drift:                               -0.000000      0.000000     -0.000000

  FREE ENERGIE OF THE ION-ELECTRON SYSTEM (eV)
  free  energy   TOTEN  =        -9.27166130 eV

  energy  without entropy=       -9.27166130  energy(sigma->0) =       -9.27166130

 Found     4 degrees of freedom:

     directions for atom     1:  y
     directions for atom     2:  y
 Linear response reoptimize wavefunctions
 Linear response to external field (no local field effect), progress :
  Direction:   1
  LATTYP: Found a face centered cubic cell.
 ALAT       =     6.2794212661

[...]

----------------------------------------- Iteration    1(   1)  ---------------------------------------

 Free energy of the ion-electron system (eV)
  -Hartree energ DENC   =         0.00000000
  -V(xc)+E(xc)   XCENC  =         0.00000000
  PAW double counting   =         0.00000000        0.00000000
  entropy T*S    EENTRO =         0.00000000
  eigenvalues    EBANDS =        -0.74549876
  free energy    TOTEN  =        -0.74549876 eV

  energy without entropy =       -0.74549876

[...]

 change of polarisation eV/A/(eV/A) component  1 :     1.584    -0.332     0.084
 dielectric tensor                  component  1 :     5.630    -0.970     0.244

 Linear response to external field (no local field effect), progress :
  Direction:   2
  LATTYP: Found a face centered cubic cell.
 ALAT       =     6.2794212661

[...]

The dynamic configuration has the point symmetry C_1h.

[...]

 Linear response to external field (no local field effect), progress :
  Direction:   3
  LATTYP: Found a face centered cubic cell.
 ALAT       =     6.2794212661

[...]

 HEAD OF MICROSCOPIC STATIC DIELECTRIC TENSOR (INDEPENDENT PARTICLE, excluding Hartree and local field effects)
           5.630496    -0.000000     0.000000
          -0.000000     5.630730    -0.000000
           0.000000    -0.000000     5.630730

 Linear response to external field, progress :
  Direction:   1
  LATTYP: Found a face centered cubic cell.
 ALAT       =     6.2794212661

[...]

 PIEZOELECTRIC TENSOR FIELD DIRECTION 1  (e Angst)
     0.00021 -0.00000  0.00000           ( -0.00000 -0.00000  0.00000)
     0.00000  0.00007  0.00000           ( -0.00000  0.00000 -0.00000)
    -0.00000  0.00000  0.00007           (  0.00000 -0.00000  0.00000)

 PIEZOELECTRIC TENSOR FIELD DIRECTION 1  (C/m^2)
     0.00005 -0.00000  0.00000
     0.00000  0.00002  0.00000
    -0.00000  0.00000  0.00002

      POSITION         DIRECTION 1           BORN EFFECTIVE CHARGE    (rigid.aug.   ionic)
      0.00000      0.00000      0.00000     2.39788 -0.00000 -0.00000 ( -0.55982 10.00000)
     -3.13971      3.13971      3.13971    -2.39787 -0.00000 -0.00000 (  1.11117  6.00000)
    total drift (improves with k-points):   0.00001 -0.00000 -0.00000

[...]

 Linear response to external field, progress :
  Direction:   3
  LATTYP: Found a face centered cubic cell.
 ALAT       =     6.2794212661

[...]

 change of polarisation eV/A/(eV/A) component  3 :    -0.000     0.007     1.438
 dielectric tensor                  component  3 :    -0.000     0.020     5.203

 PIEZOELECTRIC TENSOR FIELD DIRECTION 3  (e Angst)
     0.00001 -0.00000 -0.00019           (  0.00000 -0.00000  0.00000)
    -0.00000 -0.00002 -0.00000           ( -0.00000  0.00000 -0.00000)
    -0.00019 -0.00000  0.00003           (  0.00000 -0.00000  0.00000)

 PIEZOELECTRIC TENSOR FIELD DIRECTION 3  (C/m^2)
     0.00000 -0.00000 -0.00005
    -0.00000 -0.00001 -0.00000
    -0.00005 -0.00000  0.00001

      POSITION         DIRECTION 3           BORN EFFECTIVE CHARGE    (rigid.aug.   ionic)
      0.00000      0.00000      0.00000     0.00003  0.00000  2.39788 ( -0.55982 10.00000)
     -3.13971      3.13971      3.13971    -0.00001  0.00000 -2.39803 (  1.11117  6.00000)
    total drift (improves with k-points):   0.00002  0.00000 -0.00015

[...]

 MACROSCOPIC STATIC DIELECTRIC TENSOR (including local field effects in DFT)
           5.202575    -0.000000     0.000000
          -0.000000     5.202825    -0.000000
           0.000000    -0.000000     5.202825

 Linear response:
   Degrees of freedom DOF   =            4
 Linear response progress:
  Degree of freedom:   1/  4
  LATTYP: Found a face centered cubic cell.
 ALAT       =     6.2794212661

[...]

 INTERNAL STRAIN TENSOR  FOR ION    1  DIRECTION 1   (eV/Angst):
     0.00176  0.00000  0.00000
    -0.00000 -0.00003 -0.00000
     0.00000 -0.00000 -0.00003

 POSITION                   FORCE-CONSTANT FOR ION    1 DIRECTION 1 (eV/Angst/Angst)
      0.00000      0.00000      0.00000        -2.607273     -0.000000     -0.000000
     -3.13971      3.13971      3.13971         2.607273      0.000000      0.000000
    total drift:                                0.000000      0.000000      0.000000

 BORN EFFECTIVE CHARGE FOR ION    1 DIRECTION 1 :   2.398  -0.000   0.000
                   rigid augmentation           :  -0.560  -0.000   0.000
                   ionic contribution           :  10.000  -0.000   0.000
                   Berry contribution           :  -7.042   0.000  -0.000

 Linear response progress:
  Degree of freedom:   2/  4
  LATTYP: Found a face centered cubic cell.
 ALAT       =     6.2794212661

[...]

 Linear response progress:
  Degree of freedom:   4/  4
  LATTYP: Found a face centered cubic cell.
 ALAT       =     6.2794212661

[...]

The dynamic configuration has the point symmetry C_1h.

[...]

----------------------------------------- Iteration    8(  12)  ---------------------------------------

 Broyden mixing:
  rms(total) = 0.10056E-04    rms(broyden)= 0.10056E-04
  rms(prec ) = 0.12099E-04
  weight for this iteration     100.00

 eigenvalues of (default mixing * dielectric matrix)
  average eigenvalue GAMMA=   1.8453
  3.3751  3.0194  2.5622  2.2788  1.7405  1.5735  0.9127  1.0031  0.9939  0.9939

 Free energy of the ion-electron system (eV)
  -Hartree energ DENC   =        -0.04431150
  -V(xc)+E(xc)   XCENC  =         0.00019796
  PAW double counting   =         0.00178660       -0.00178650
  entropy T*S    EENTRO =        -0.00000000
  eigenvalues    EBANDS =        -0.04383123
  free energy    TOTEN  =        -0.08794468 eV

  energy without entropy =       -0.08794468

[...]

 k-point 476 :       0.0000   -0.5000   -0.5000
  band No.  band energies     occupation
      1      -0.0001      0.00000
      2      -0.0001      0.00000
      3      -0.0001      0.00000
      4      -0.0001      0.00000
      5       0.0002      0.00000
      6       0.0001      0.00000
      7       0.0002      0.00000
      8       0.0002      0.00000
      9       0.0000      0.00000
     10       0.0000      0.00000
     11      -0.0000      0.00000
     12      -0.0000      0.00000
     13      -0.0001      0.00000
     14      -0.0001      0.00000
     15       0.0001      0.00000
     16       0.0000      0.00000

------------------------ aborting loop because EDIFF is reached ----------------------------------------

 INTERNAL STRAIN TENSOR  FOR ION    2  DIRECTION 2   (eV/Angst):
     0.00083 -0.00120  0.00000
    -0.00119  0.00047  0.00000
     0.00000  0.00000  0.00021

 POSITION                   FORCE-CONSTANT FOR ION    2 DIRECTION 2 (eV/Angst/Angst)
      0.00000      0.00000      0.00000         0.000002      2.605094      0.000000
     -3.13971      3.13971      3.13971        -0.000002     -2.605094     -0.000000
    total drift:                               -0.000000      0.000000      0.000000

 BORN EFFECTIVE CHARGE FOR ION    2 DIRECTION 2 :  -0.000  -2.398   0.000
                   rigid augmentation           :  -0.000   1.111  -0.000
                   ionic contribution           :  -0.000   6.000  -0.000
                   Berry contribution           :  -0.000  -9.509   0.000

  LATTYP: Found a face centered cubic cell.
 ALAT       =     6.2794212661

  Lattice vectors:

 A1 = (  -3.1397106330,   0.0000000000,   3.1397106330)
 A2 = (   0.0000000000,   3.1397106330,   3.1397106330)
 A3 = (  -3.1397106330,   3.1397106330,   0.0000000000)

Analysis of symmetry for initial positions (statically):
 Subroutine PRICEL returns:
 Original cell was already a primitive cell.

[...]

The static configuration has the point symmetry C_4v.

Analysis of symmetry for dynamics (positions and initial velocities):
 Subroutine PRICEL returns:
 Original cell was already a primitive cell.

 Routine SETGRP: Setting up the symmetry group for a
 face centered cubic supercell.

 Subroutine GETGRP returns: Found  8 space group operations
 (whereof  8 operations were pure point group operations)
 out of a pool of 48 trial point group operations.

The dynamic configuration has the point symmetry C_4v.

 Subroutine INISYM returns: Found  8 space group operations
 (whereof  8 operations are pure point group operations),
 and found     1 'primitive' translations

 MACROSCOPIC STATIC DIELECTRIC TENSOR (including local field effects in DFT)
           5.202575    -0.000000     0.000000
          -0.000000     5.202825    -0.000000
           0.000000    -0.000000     5.202825

 PIEZOELECTRIC TENSOR  for field in x, y, z        (e  Angst)
          XX          YY          ZZ          XY          YZ          ZX
  x     0.00021     0.00007     0.00007     0.00000     0.00000     0.00000
  y    -0.00007     0.00006    -0.00012     0.00031     0.00000    -0.00000
  z     0.00001    -0.00002     0.00003    -0.00000    -0.00000    -0.00019

 PIEZOELECTRIC TENSOR  for field in x, y, z        (C/m^2)
          XX          YY          ZZ          XY          YZ          ZX
  x     0.00005     0.00002     0.00002    -0.00000    -0.00000     0.00000
  y    -0.00000    -0.00000     0.00000     0.00002     0.00000    -0.00000
  z     0.00000     0.00000     0.00000    -0.00000    -0.00000     0.00002

 BORN EFFECTIVE CHARGES (in e, cummulative output)
 ion    1
    1     2.39787    -0.00000     0.00000
    2    -0.00006     2.39802     0.00000
    3     0.00002    -0.00000     2.39795
 ion    2
    1    -2.39787     0.00000    -0.00000
    2     0.00006    -2.39802    -0.00000
    3    -0.00002     0.00000    -2.39795

 INTERNAL STRAIN TENSOR FOR ION    1 for displacements in x,y,z  (eV/Angst):
          X           Y           Z          XY          YZ          ZX
  x     0.00176    -0.00003    -0.00003    -0.00000     0.00000     0.00000
  y     0.00000     0.00000     0.00000    -0.00061    -0.00000     0.00000
  z    -0.00000     0.00000     0.00000     0.00000     0.00000    -0.00061

 INTERNAL STRAIN TENSOR FOR ION    2 for displacements in x,y,z  (eV/Angst):
          X           Y           Z          XY          YZ          ZX
  x    -0.00118    -0.00042    -0.00042     0.00000     0.00000    -0.00000
  y     0.00000     0.00000     0.00000    -0.00119    -0.00000     0.00000
  z     0.00000     0.00000     0.00000     0.00000     0.00000    -0.00120

 SECOND DERIVATIVES (NOT SYMMETRIZED)
               1X          1Y          1Z          2X          2Y          2Z
  1X    -2.607273    0.000000   -0.000000    2.607273   -0.000000    0.000000
  1Y     0.000000   -2.607247    0.000000   -0.000000    2.607247   -0.000000
  1Z    -0.000000    0.000000   -2.607247    0.000000   -0.000000    2.607247
  2X     2.605093   -0.000000    0.000000   -2.605093    0.000000   -0.000000
  2Y    -0.000000    2.605094   -0.000000    0.000000   -2.605094    0.000000
  2Z     0.000000   -0.000000    2.605094   -0.000000    0.000000   -2.605094

 Eigenvectors and eigenvalues of the dynamical matrix

   1 f  =    3.916108 THz    24.605634 2PiTHz  130.627308 cm-1    16.195728 meV
             X         Y         Z           dx          dy          dz
      0.000000  0.000000  0.000000     0.688633   -0.000000    0.000000
     -3.139710  3.139711  3.139711    -0.725110    0.000000    0.000000

[...]

   3 f  =    3.916100 THz    24.605579 2PiTHz  130.627018 cm-1    16.195692 meV
             X         Y         Z           dx          dy          dz
      0.000000  0.000000  0.000000    -0.000000    0.000000   -0.688631
     -3.139710  3.139711  3.139711     0.000000    0.000000    0.725112

   4 f/i=    0.000808 THz     0.005075 2PiTHz    0.026944 cm-1     0.003341 meV
             X         Y         Z           dx          dy          dz
      0.000000  0.000000  0.000000     0.000000   -0.180293    0.702340
     -3.139710  3.139711  3.139711     0.000000   -0.171222    0.667005

[...]

   6 f/i=    0.000818 THz     0.005139 2PiTHz    0.027281 cm-1     0.003382 meV
             X         Y         Z           dx          dy          dz
      0.000000  0.000000  0.000000     0.725110    0.000000    0.000000
     -3.139710  3.139711  3.139711     0.688633    0.000000    0.000000

 MACROSCOPIC STATIC DIELECTRIC TENSOR IONIC CONTRIBUTION
           6.449323    -0.000161     0.000058
          -0.000161     6.450136    -0.000000
           0.000058    -0.000000     6.449782

 ELASTIC MODULI IONIC CONTR (kBar)
 Direction    XX          YY          ZZ          XY          YZ          ZX
 XX          -0.0000     -0.0000     -0.0000      0.0000      0.0000     -0.0000
 YY          -0.0000     -0.0000     -0.0000      0.0000      0.0000     -0.0000
 ZZ          -0.0000     -0.0000     -0.0000      0.0000      0.0000     -0.0000
 XY           0.0000      0.0000      0.0000     -0.0000     -0.0000      0.0000
 YZ           0.0000      0.0000      0.0000     -0.0000     -0.0000      0.0000
 ZX          -0.0000     -0.0000     -0.0000      0.0000      0.0000     -0.0000

 PIEZOELECTRIC TENSOR IONIC CONTR  for field in x, y, z        (C/m^2)
          XX          YY          ZZ          XY          YZ          ZX
  x     0.00035     0.00005     0.00005    -0.00000    -0.00000     0.00000
  y    -0.00000    -0.00000    -0.00000     0.00007     0.00000     0.00000
  z     0.00000     0.00000     0.00000    -0.00000    -0.00000     0.00007