 vasp.5.4.4.18Apr17-6-g9f103f2a35 (build Aug 24 2017 11:22:49) complex

 executed on             LinuxIFC date 2023.12.25  13:07:29

 INCAR:
 POTCAR:    PAW_PBE Ga_d 06Jul2010
 POTCAR:    PAW_PBE P 06Sep2000

 POTCAR:    PAW_PBE Ga_d 06Jul2010
   VRHFIN =Ga: s2p1

   TITEL  = PAW_PBE Ga_d 06Jul2010
   POMASS =   69.723; ZVAL   =   13.000    mass and valenz
   ENMAX  =  282.691; ENMIN  =  212.018 eV

 POTCAR:    PAW_PBE P 06Sep2000
   VRHFIN =P : s2p3

   TITEL  = PAW_PBE P 06Sep2000
   POMASS =   30.974; ZVAL   =    5.000    mass and valenz
   ENMAX  =  255.040; ENMIN  =  191.280 eV

  PAW_PBE Ga_d 06Jul2010                :
  PAW_PBE P 06Sep2000                   :

 POSCAR: Ga1 P1
  positions in direct lattice
 exchange correlation table for  LEXCH =        8
   RHO(1)=    0.500       N(1)  =     2000
   RHO(2)=  100.500       N(2)  =     4000

 ion  position               nearest neighbor table
   1  0.000  0.000  0.000-   2 2.36   2 2.36   2 2.36   2 2.36
   2  0.250  0.250  0.250-   1 2.36   1 2.36   1 2.36   1 2.36

  LATTYP: Found a face centered cubic cell.
 ALAT       =     5.4516245702

  Lattice vectors:

 A1 = (  -2.7258122851,   0.0000000000,   2.7258122851)
 A2 = (   0.0000000000,   2.7258122851,   2.7258122851)
 A3 = (  -2.7258122851,   2.7258122851,   0.0000000000)

Analysis of symmetry for initial positions (statically):
 Subroutine PRICEL returns:
 Original cell was already a primitive cell.

 Routine SETGRP: Setting up the symmetry group for a
 face centered cubic supercell.

 Subroutine GETGRP returns: Found  2 space group operations
 (whereof  2 operations were pure point group operations)
 out of a pool of 48 trial point group operations.

The static configuration has the point symmetry C_1h.

Analysis of symmetry for dynamics (positions and initial velocities):
 Subroutine PRICEL returns:
 Original cell was already a primitive cell.

[...]

The dynamic configuration has the point symmetry C_1h.

 Subroutine INISYM returns: Found  2 space group operations
 (whereof  2 operations are pure point group operations),
 and found     1 'primitive' translations

 KPOINTS: pymatgen with grid density = 3000 / numb

Automatic generation of k-mesh.
Space group operators:
 irot       det(A)        alpha          n_x          n_y          n_z        tau_x        tau_y        tau_z
    1     1.000000     0.000000     1.000000     0.000000     0.000000     0.000000     0.000000     0.000000
    2    -1.000000   180.000000     0.707107    -0.707107    -0.000000     0.000000     0.000000     0.000000

 Subroutine IBZKPT returns following result:

 Found    476 irreducible k-points:

 Following reciprocal coordinates:
            Coordinates               Weight
  0.000000  0.000000  0.000000      1.000000
  0.083333 -0.000000 -0.000000      2.000000
  0.166667 -0.000000  0.000000      2.000000
  0.250000 -0.000000 -0.000000      2.000000
  0.333333  0.000000  0.000000      2.000000
  0.416667 -0.000000  0.000000      2.000000
  0.500000 -0.000000 -0.000000      1.000000
  0.000000  0.083333  0.000000      2.000000
  0.083333  0.083333  0.000000      2.000000
  0.166667  0.083333  0.000000      2.000000
  0.250000  0.083333  0.000000      2.000000
  0.333333  0.083333 -0.000000      2.000000
  0.416667  0.083333  0.000000      2.000000
  0.500000  0.083333  0.000000      2.000000
 -0.416667  0.083333  0.000000      2.000000
 -0.333333  0.083333  0.000000      2.000000
 -0.250000  0.083333 -0.000000      2.000000
 -0.166667  0.083333  0.000000      2.000000
 -0.083333  0.083333  0.000000      2.000000
  0.000000  0.166667 -0.000000      2.000000
  0.083333  0.166667  0.000000      2.000000
  0.166667  0.166667  0.000000      2.000000
  0.250000  0.166667  0.000000      2.000000
  0.333333  0.166667  0.000000      2.000000
  0.416667  0.166667  0.000000      2.000000
  0.500000  0.166667  0.000000      2.000000
 -0.416667  0.166667 -0.000000      2.000000
 -0.333333  0.166667  0.000000      2.000000
 -0.250000  0.166667 -0.000000      2.000000
 -0.166667  0.166667  0.000000      2.000000
 -0.083333  0.166667  0.000000      2.000000
 -0.000000  0.250000  0.000000      2.000000
  0.083333  0.250000  0.000000      2.000000
  0.166667  0.250000  0.000000      2.000000
  0.250000  0.250000  0.000000      2.000000
  0.333333  0.250000  0.000000      2.000000
  0.416667  0.250000  0.000000      2.000000
  0.500000  0.250000  0.000000      2.000000
 -0.416667  0.250000 -0.000000      2.000000
 -0.333333  0.250000  0.000000      2.000000
 -0.250000  0.250000  0.000000      2.000000
 -0.166667  0.250000 -0.000000      2.000000
 -0.083333  0.250000  0.000000      2.000000
 -0.000000  0.333333  0.000000      2.000000
  0.083333  0.333333  0.000000      2.000000
  0.166667  0.333333  0.000000      2.000000
  0.250000  0.333333  0.000000      2.000000
  0.333333  0.333333  0.000000      2.000000
  0.416667  0.333333  0.000000      2.000000
  0.500000  0.333333  0.000000      2.000000
 -0.416667  0.333333 -0.000000      2.000000
 -0.333333  0.333333  0.000000      2.000000
 -0.250000  0.333333  0.000000      2.000000
 -0.166667  0.333333  0.000000      2.000000
 -0.083333  0.333333  0.000000      2.000000
 -0.000000  0.416667  0.000000      2.000000
  0.083333  0.416667 -0.000000      2.000000
  0.166667  0.416667  0.000000      2.000000
  0.250000  0.416667  0.000000      2.000000
  0.333333  0.416667  0.000000      2.000000
[...]
  0.333333  0.166667  0.500000      4.000000
  0.416667  0.166667  0.500000      4.000000
  0.500000  0.166667  0.500000      4.000000
 -0.416667  0.166667  0.500000      4.000000
 -0.333333  0.166667  0.500000      4.000000
 -0.250000  0.166667  0.500000      4.000000
 -0.166667  0.166667  0.500000      4.000000
 -0.083333  0.166667  0.500000      4.000000
  0.000000  0.250000  0.500000      4.000000
  0.083333  0.250000  0.500000      4.000000
  0.166667  0.250000  0.500000      4.000000
  0.250000  0.250000  0.500000      2.000000
 -0.416667  0.250000  0.500000      4.000000
 -0.333333  0.250000  0.500000      4.000000
 -0.250000  0.250000  0.500000      2.000000

 Following cartesian coordinates:
            Coordinates               Weight
  0.000000  0.000000  0.000000      1.000000
 -0.015286 -0.015286  0.015286      2.000000
 -0.030572 -0.030572  0.030572      2.000000
 -0.045858 -0.045858  0.045858      2.000000
 -0.061144 -0.061144  0.061144      2.000000
 -0.076430 -0.076430  0.076430      2.000000
 -0.091716 -0.091716  0.091716      1.000000
  0.015286  0.015286  0.015286      2.000000
 -0.000000  0.000000  0.030572      2.000000
 -0.015286 -0.015286  0.045858      2.000000
 -0.030572 -0.030572  0.061144      2.000000
 -0.045858 -0.045858  0.076430      2.000000
 -0.061144 -0.061144  0.091716      2.000000
 -0.076430 -0.076430  0.107002      2.000000
  0.091716  0.091716 -0.061144      2.000000
  0.076430  0.076430 -0.045858      2.000000
  0.061144  0.061144 -0.030572      2.000000
  0.045858  0.045858 -0.015286      2.000000
  0.030572  0.030572  0.000000      2.000000
  0.030572  0.030572  0.030572      2.000000
  0.015286  0.015286  0.045858      2.000000
 -0.000000 -0.000000  0.061144      2.000000
 -0.015286 -0.015286  0.076430      2.000000
 -0.030572 -0.030572  0.091716      2.000000
 -0.045858 -0.045858  0.107002      2.000000
 -0.061144 -0.061144  0.122288      2.000000
  0.107002  0.107002 -0.045858      2.000000
  0.091716  0.091716 -0.030572      2.000000
  0.076430  0.076430 -0.015286      2.000000
  0.061144  0.061144  0.000000      2.000000
  0.045858  0.045858  0.015286      2.000000
  0.045858  0.045858  0.045858      2.000000
  0.030572  0.030572  0.061144      2.000000
  0.015286  0.015286  0.076430      2.000000
  0.000000  0.000000  0.091716      2.000000
 -0.015286 -0.015286  0.107002      2.000000
 -0.030572 -0.030572  0.122288      2.000000
 -0.045858 -0.045858  0.137574      2.000000
  0.122288  0.122288 -0.030572      2.000000
  0.107002  0.107002 -0.015286      2.000000
  0.091716  0.091716  0.000000      2.000000
  0.076430  0.076430  0.015286      2.000000
  0.061144  0.061144  0.030572      2.000000
  0.061144  0.061144  0.061144      2.000000
  0.045858  0.045858  0.076430      2.000000
  0.030572  0.030572  0.091716      2.000000
  0.015286  0.015286  0.107002      2.000000
  0.000000  0.000000  0.122288      2.000000
 -0.015286 -0.015286  0.137574      2.000000
 -0.030572 -0.030572  0.152860      2.000000
  0.137574  0.137574 -0.015286      2.000000
  0.122288  0.122288  0.000000      2.000000
  0.107002  0.107002  0.015286      2.000000
  0.091716  0.091716  0.030572      2.000000
  0.076430  0.076430  0.045858      2.000000
  0.076430  0.076430  0.076430      2.000000
  0.061144  0.061144  0.091716      2.000000
  0.045858  0.045858  0.107002      2.000000
  0.030572  0.030572  0.122288      2.000000
  0.015286  0.015286  0.137574      2.000000
[...]
 -0.122288  0.061144  0.000000      4.000000
 -0.137574  0.045858  0.015286      4.000000
 -0.152860  0.030572  0.030572      4.000000
  0.015286  0.198718 -0.137574      4.000000
  0.000000  0.183432 -0.122288      4.000000
 -0.015286  0.168146 -0.107002      4.000000
 -0.030572  0.152860 -0.091716      4.000000
 -0.045858  0.137574 -0.076430      4.000000
 -0.045858  0.137574 -0.045858      4.000000
 -0.061144  0.122288 -0.030572      4.000000
 -0.076430  0.107002 -0.015286      4.000000
 -0.091716  0.091716  0.000000      2.000000
  0.030572  0.214003 -0.122288      4.000000
  0.015286  0.198718 -0.107002      4.000000
 -0.000000  0.183432 -0.091716      2.000000

 Subroutine IBZKPT_HF returns following result:

 Found   1728 k-points in 1st BZ
 the following   1728 k-points will be used (e.g. in the exchange kernel)
 Following reciprocal coordinates:   # in IRBZ
  0.000000  0.000000  0.000000    0.00057870   1 t-inv F
  0.083333 -0.000000 -0.000000    0.00057870   2 t-inv F
  0.166667 -0.000000  0.000000    0.00057870   3 t-inv F
  0.250000 -0.000000 -0.000000    0.00057870   4 t-inv F
  0.333333  0.000000  0.000000    0.00057870   5 t-inv F
  0.416667 -0.000000  0.000000    0.00057870   6 t-inv F
  0.500000 -0.000000 -0.000000    0.00057870   7 t-inv F
  0.000000  0.083333  0.000000    0.00057870   8 t-inv F
  0.083333  0.083333  0.000000    0.00057870   9 t-inv F
  0.166667  0.083333  0.000000    0.00057870  10 t-inv F
  0.250000  0.083333  0.000000    0.00057870  11 t-inv F
  0.333333  0.083333 -0.000000    0.00057870  12 t-inv F
  0.416667  0.083333  0.000000    0.00057870  13 t-inv F
  0.500000  0.083333  0.000000    0.00057870  14 t-inv F
 -0.416667  0.083333  0.000000    0.00057870  15 t-inv F
 -0.333333  0.083333  0.000000    0.00057870  16 t-inv F
 -0.250000  0.083333 -0.000000    0.00057870  17 t-inv F
 -0.166667  0.083333  0.000000    0.00057870  18 t-inv F
 -0.083333  0.083333  0.000000    0.00057870  19 t-inv F
  0.000000  0.166667 -0.000000    0.00057870  20 t-inv F
  0.083333  0.166667  0.000000    0.00057870  21 t-inv F
  0.166667  0.166667  0.000000    0.00057870  22 t-inv F
  0.250000  0.166667  0.000000    0.00057870  23 t-inv F
  0.333333  0.166667  0.000000    0.00057870  24 t-inv F
  0.416667  0.166667  0.000000    0.00057870  25 t-inv F
[...]
      9       4.6452      2.00000
     10       6.4645      0.00000
     11       8.5321      0.00000
     12       8.5321      0.00000
     13       8.5321      0.00000
     14      13.4486      0.00000
     15      14.4312      0.00000
     16      14.4312      0.00000

[...]

 soft charge-density along one line, spin component           1
         0         1         2         3         4         5         6         7         8         9
 total charge-density along one line

------------------------ aborting loop because EDIFF is reached ----------------------------------------

  FORCE on cell =-STRESS in cart. coord.  units (eV):
  Direction    XX          YY          ZZ          XY          YZ          ZX
  Alpha Z    55.07071    55.07071    55.07071
  Ewald    -437.46251  -437.46251  -437.46251     0.00010     0.00003     0.00003
  Hartree   231.79760   231.79760   231.79760     0.00002     0.00001     0.00001
  E(xc)     -95.51988   -95.51988   -95.51988    -0.00001     0.00001    -0.00001
  Local     -46.33249   -46.33249   -46.33249    -0.00019     0.00004    -0.00013
  n-local    66.14225    66.34560    66.24392    -0.00001     0.00058    -0.00059
  augment   112.25514   112.25514   112.25514     0.00006    -0.00007     0.00007
  Kinetic   113.98792   115.13554   114.56173    -0.00000     0.49446    -0.49447
  Fock        0.00000     0.00000     0.00000     0.00000     0.00000     0.00000
  Total       0.61422     0.61422     0.61422    -0.00001     0.00000     0.00000
  in kB      24.29512    24.29512    24.29512    -0.00023     0.00004     0.00004

 VOLUME and BASIS-vectors are now :
  energy-cutoff  :      520.00
  volume of cell :       40.51
      direct lattice vectors                 reciprocal lattice vectors
    -2.725812285  0.000000000  2.725812285    -0.183431560 -0.183431560  0.183431560
     0.000000000  2.725812285  2.725812285     0.183431560  0.183431560  0.183431560
    -2.725812285  2.725812285  0.000000000    -0.183431560  0.183431560 -0.183431560

  length of vectors
     3.854880702  3.854880702  3.854880702     0.317712782  0.317712782  0.317712782

 FORCES acting on ions
    electron-ion (+dipol)            ewald-force                    non-local-force                 convergence-correction
   -.102E-04 -.708E-05 -.165E-04   0.101E-04 0.101E-04 0.304E-04   0.697E-06 0.697E-06 -.782E-05   -.109E-05 -.109E-05 0.341E-05
   0.972E-05 0.984E-05 0.309E-04   -.101E-04 -.101E-04 -.304E-04   -.724E-06 -.724E-06 -.893E-05   0.116E-07 0.116E-07 -.177E-06
   -.467E-06 0.275E-05 0.144E-04   -.356E-15 -.129E-14 0.907E-16   -.267E-07 -.267E-07 -.168E-04   -.108E-05 -.108E-05 0.324E-05

 POSITION                                       TOTAL-FORCE (eV/Angst)
      0.00000      0.00000      0.00000         0.000001      0.000001      0.000009
     -1.36291      1.36291      1.36291        -0.000001     -0.000001     -0.000009
    total drift:                               -0.000002      0.000002      0.000001

  FREE ENERGIE OF THE ION-ELECTRON SYSTEM (eV)
  free  energy   TOTEN  =        -9.11635051 eV

  energy  without entropy=       -9.11635051  energy(sigma->0) =       -9.11635051

 Found     4 degrees of freedom:

     directions for atom     1:  z
     directions for atom     2:  z
 Linear response reoptimize wavefunctions
 Linear response to external field (no local field effect), progress :
  Direction:   1
  LATTYP: Found a face centered cubic cell.
 ALAT       =     5.4516245702

[...]

The dynamic configuration has the point symmetry C_1 .

[...]

----------------------------------------- Iteration    1(   1)  ---------------------------------------

 Free energy of the ion-electron system (eV)
  -Hartree energ DENC   =         0.00000000
  -V(xc)+E(xc)   XCENC  =         0.00000000
  PAW double counting   =         0.00000000        0.00000000
  entropy T*S    EENTRO =         0.00000000
  eigenvalues    EBANDS =        -0.12982135
  free energy    TOTEN  =        -0.12982135 eV

  energy without entropy =       -0.12982135

[...]

 change of polarisation eV/A/(eV/A) component  1 :     2.039    -0.001    -0.177
 dielectric tensor                  component  1 :    10.111    -0.003    -0.789

 Linear response to external field (no local field effect), progress :
  Direction:   2
  LATTYP: Found a face centered cubic cell.
 ALAT       =     5.4516245702

[...]

 Linear response to external field (no local field effect), progress :
  Direction:   3
  LATTYP: Found a face centered cubic cell.
 ALAT       =     5.4516245702

[...]

 HEAD OF MICROSCOPIC STATIC DIELECTRIC TENSOR (INDEPENDENT PARTICLE, excluding Hartree and local field effects)
          10.877605    -0.002854    -0.000064
          -0.002854    10.877605    -0.000064
           0.000063     0.000063    10.876093

 Linear response to external field, progress :
  Direction:   1
  LATTYP: Found a face centered cubic cell.
 ALAT       =     5.4516245702

[...]

 PIEZOELECTRIC TENSOR FIELD DIRECTION 1  (e Angst)
    -0.00100  0.00193  0.00023           ( -0.00002  0.00001  0.00000)
     0.00193  0.00054  2.04152           (  0.00001  0.00000  0.03951)
     0.00023  2.04152  0.00038           (  0.00000  0.03951 -0.00002)

 PIEZOELECTRIC TENSOR FIELD DIRECTION 1  (C/m^2)
    -0.00040  0.00076  0.00009
     0.00076  0.00021  0.80751
     0.00009  0.80751  0.00015

      POSITION         DIRECTION 1           BORN EFFECTIVE CHARGE    (rigid.aug.   ionic)
      0.00000      0.00000      0.00000     2.16191  0.00007  0.00001 ( -8.43081 13.00000)
     -1.36291      1.36291      1.36291    -2.16179 -0.00021 -0.00032 (  0.52048  5.00000)
    total drift (improves with k-points):   0.00012 -0.00014 -0.00030

[...]

 Linear response to external field, progress :
  Direction:   3
  LATTYP: Found a face centered cubic cell.
 ALAT       =     5.4516245702

[...]

 change of polarisation eV/A/(eV/A) component  3 :    -0.173     0.173     2.085
 dielectric tensor                  component  3 :    -0.772     0.772    10.314

 PIEZOELECTRIC TENSOR FIELD DIRECTION 3  (e Angst)
    -0.00012  2.03631  0.00089           (  0.00001  0.03462  0.00000)
     2.03631 -0.00012  0.00089           (  0.03462  0.00001  0.00000)
     0.00089  0.00089 -0.00053           (  0.00000  0.00000  0.00001)

 PIEZOELECTRIC TENSOR FIELD DIRECTION 3  (C/m^2)
    -0.00005  0.80545  0.00035
     0.80545 -0.00005  0.00035
     0.00035  0.00035 -0.00021

      POSITION         DIRECTION 3           BORN EFFECTIVE CHARGE    (rigid.aug.   ionic)
      0.00000      0.00000      0.00000    -0.00005 -0.00005  2.16180 ( -8.43081 13.00000)
     -1.36291      1.36291      1.36291     0.00008  0.00008 -2.16180 (  0.52048  5.00000)
    total drift (improves with k-points):   0.00004  0.00004 -0.00000

[...]

 MACROSCOPIC STATIC DIELECTRIC TENSOR (including local field effects in DFT)
          10.315159    -0.002914    -0.000049
          -0.002914    10.315159    -0.000049
           0.000008     0.000008    10.313586

 Linear response:
   Degrees of freedom DOF   =            4
 Linear response progress:
  Degree of freedom:   1/  4
  LATTYP: Found a face centered cubic cell.
 ALAT       =     5.4516245702

[...]

 INTERNAL STRAIN TENSOR  FOR ION    1  DIRECTION 1   (eV/Angst):
     0.00561 -0.03874  0.28473
     0.03653 -0.00380 -7.44312
    -0.29536 -7.59610 -0.00289

 POSITION                   FORCE-CONSTANT FOR ION    1 DIRECTION 1 (eV/Angst/Angst)
      0.00000      0.00000      0.00000       -10.016744     -0.000229     -0.000043
     -1.36291      1.36291      1.36291        10.016744      0.000229      0.000043
    total drift:                                0.000000     -0.000000      0.000000

 BORN EFFECTIVE CHARGE FOR ION    1 DIRECTION 1 :   2.162  -0.000  -0.000
                   rigid augmentation           :  -8.431   0.000  -0.000
                   ionic contribution           :  13.000   0.000  -0.000
                   Berry contribution           :  -2.407  -0.000  -0.000

 Linear response progress:
  Degree of freedom:   2/  4
  LATTYP: Found a face centered cubic cell.
 ALAT       =     5.4516245702

[...]

The dynamic configuration has the point symmetry C_1 .

[...]

 Linear response progress:
  Degree of freedom:   4/  4
  LATTYP: Found a face centered cubic cell.
 ALAT       =     5.4516245702

[...]

----------------------------------------- Iteration    9(  12)  ---------------------------------------

 Broyden mixing:
  rms(total) = 0.95976E-05    rms(broyden)= 0.95976E-05
  rms(prec ) = 0.10737E-04
  weight for this iteration     100.00

 eigenvalues of (default mixing * dielectric matrix)
  average eigenvalue GAMMA=   1.7815
  3.0977  2.7584  2.5478  2.3152  1.6071  1.6071  1.0278  1.0278  0.9514  0.8748

 Free energy of the ion-electron system (eV)
  -Hartree energ DENC   =        -0.02219264
  -V(xc)+E(xc)   XCENC  =         0.00008556
  PAW double counting   =         0.00311335       -0.00311605
  entropy T*S    EENTRO =        -0.00000000
  eigenvalues    EBANDS =        -0.02573944
  free energy    TOTEN  =        -0.04784921 eV

  energy without entropy =       -0.04784921

[...]

 k-point 476 :      -0.2500    0.2500    0.5000
  band No.  band energies     occupation
      1      -0.0000      0.00000
      2      -0.0001      0.00000
      3      -0.0001      0.00000
      4      -0.0001      0.00000
      5      -0.0001      0.00000
      6       0.0002      0.00000
      7       0.0001      0.00000
      8       0.0001      0.00000
      9       0.0001      0.00000
     10       0.0001      0.00000
     11       0.0001      0.00000
     12       0.0001      0.00000
     13       0.0001      0.00000
     14       0.0001      0.00000
     15       0.0001      0.00000
     16       0.0002      0.00000

------------------------ aborting loop because EDIFF is reached ----------------------------------------

 INTERNAL STRAIN TENSOR  FOR ION    2  DIRECTION 3   (eV/Angst):
     0.00292  7.60942  0.06224
     7.60942  0.00292  0.06224
    -0.04112 -0.04112 -0.00414

 POSITION                   FORCE-CONSTANT FOR ION    2 DIRECTION 3 (eV/Angst/Angst)
      0.00000      0.00000      0.00000         0.000153      0.000153     10.031312
     -1.36291      1.36291      1.36291        -0.000153     -0.000153    -10.031312
    total drift:                                0.000000      0.000000      0.000000

 BORN EFFECTIVE CHARGE FOR ION    2 DIRECTION 3 :  -0.000  -0.000  -2.162
                   rigid augmentation           :  -0.000   0.000   0.520
                   ionic contribution           :  -0.000   0.000   5.000
                   Berry contribution           :  -0.000  -0.000  -7.683

  LATTYP: Found a face centered cubic cell.
 ALAT       =     5.4516245702

  Lattice vectors:

 A1 = (  -2.7258122851,   0.0000000000,   2.7258122851)
 A2 = (   0.0000000000,   2.7258122851,   2.7258122851)
 A3 = (  -2.7258122851,   2.7258122851,   0.0000000000)

Analysis of symmetry for initial positions (statically):
 Subroutine PRICEL returns:
 Original cell was already a primitive cell.

[...]

The static configuration has the point symmetry C_1h.

Analysis of symmetry for dynamics (positions and initial velocities):
 Subroutine PRICEL returns:
 Original cell was already a primitive cell.

 Routine SETGRP: Setting up the symmetry group for a
 face centered cubic supercell.

 Subroutine GETGRP returns: Found  2 space group operations
 (whereof  2 operations were pure point group operations)
 out of a pool of 48 trial point group operations.

The dynamic configuration has the point symmetry C_1h.

 Subroutine INISYM returns: Found  2 space group operations
 (whereof  2 operations are pure point group operations),
 and found     1 'primitive' translations

 MACROSCOPIC STATIC DIELECTRIC TENSOR (including local field effects in DFT)
          10.315159    -0.002914    -0.000049
          -0.002914    10.315159    -0.000049
           0.000008     0.000008    10.313586

 PIEZOELECTRIC TENSOR  for field in x, y, z        (e  Angst)
          XX          YY          ZZ          XY          YZ          ZX
  x    -0.00100     0.00054     0.00038     0.00193     2.04152     0.00023
  y     0.00054    -0.00051     0.00002    -0.00180     0.00063     2.04155
  z    -0.00012    -0.00012    -0.00053     2.03631     0.00089     0.00089

 PIEZOELECTRIC TENSOR  for field in x, y, z        (C/m^2)
          XX          YY          ZZ          XY          YZ          ZX
  x    -0.00030     0.00021     0.00008     0.00003     0.80751     0.00017
  y     0.00021    -0.00030     0.00008     0.00003     0.00017     0.80751
  z    -0.00005    -0.00005    -0.00021     0.80545     0.00035     0.00035

 BORN EFFECTIVE CHARGES (in e, cummulative output)
 ion    1
    1     2.16185     0.00014     0.00016
    2     0.00013     2.16185    -0.00015
    3    -0.00007    -0.00007     2.16180
 ion    2
    1    -2.16185    -0.00014    -0.00016
    2    -0.00013    -2.16185     0.00015
    3     0.00007     0.00007    -2.16180

 INTERNAL STRAIN TENSOR FOR ION    1 for displacements in x,y,z  (eV/Angst):
          X           Y           Z          XY          YZ          ZX
  x     0.00561    -0.00380    -0.00289     0.03653    -7.59610     0.28473
  y    -0.00380     0.00561    -0.00289    -0.03874    -0.29536    -7.44312
  z    -0.00205    -0.00205     0.00538    -7.55513     0.02757    -0.05448

 INTERNAL STRAIN TENSOR FOR ION    2 for displacements in x,y,z  (eV/Angst):
          X           Y           Z          XY          YZ          ZX
  x    -0.00343     0.00061     0.00130    -0.04637     7.67913    -0.35979
  y     0.00061    -0.00343     0.00130     0.04746     0.36645     7.48684
  z     0.00292     0.00292    -0.00414     7.60942    -0.04112     0.06224

 SECOND DERIVATIVES (NOT SYMMETRIZED)
               1X          1Y          1Z          2X          2Y          2Z
  1X   -10.016744   -0.000229   -0.000043   10.016744    0.000229    0.000043
  1Y    -0.000229  -10.016744   -0.000043    0.000229   10.016744    0.000043
  1Z     0.000154    0.000154  -10.016410   -0.000154   -0.000154   10.016410
  2X    10.030979    0.000036    0.000316  -10.030979   -0.000036   -0.000316
  2Y     0.000036   10.030979    0.000316   -0.000036  -10.030979   -0.000316
  2Z     0.000153    0.000153   10.031312   -0.000153   -0.000153  -10.031312

 Eigenvectors and eigenvalues of the dynamical matrix

   1 f  =   10.689467 THz    67.163902 2PiTHz  356.562226 cm-1    44.208098 meV
             X         Y         Z           dx          dy          dz
      0.000000  0.000000  0.000000    -0.265779   -0.265779   -0.407434
     -1.362906  1.362906  1.362906     0.399046    0.399046    0.611756

[...]

   3 f  =   10.689247 THz    67.162519 2PiTHz  356.554887 cm-1    44.207188 meV
             X         Y         Z           dx          dy          dz
      0.000000  0.000000  0.000000     0.391976   -0.391976    0.000000
     -1.362906  1.362906  1.362906    -0.588519    0.588519   -0.000000

   4 f/i=    0.003414 THz     0.021449 2PiTHz    0.113871 cm-1     0.014118 meV
             X         Y         Z           dx          dy          dz
      0.000000  0.000000  0.000000     0.546579    0.546579   -0.308548
     -1.362906  1.362906  1.362906     0.364052    0.364052   -0.205509

[...]

   6 f/i=    0.003706 THz     0.023286 2PiTHz    0.123622 cm-1     0.015327 meV
             X         Y         Z           dx          dy          dz
      0.000000  0.000000  0.000000    -0.218180   -0.218180   -0.772993
     -1.362906  1.362906  1.362906    -0.145311   -0.145311   -0.514826

 MACROSCOPIC STATIC DIELECTRIC TENSOR IONIC CONTRIBUTION
           2.082874     0.000228     0.000076
           0.000228     2.082881    -0.000227
           0.000076    -0.000227     2.082782

 ELASTIC MODULI IONIC CONTR (kBar)
 Direction    XX          YY          ZZ          XY          YZ          ZX
 XX          -0.0001      0.0001      0.0001     -0.0756      0.1336     -0.0713
 YY           0.0001     -0.0001      0.0001     -0.0733     -0.0602      0.1353
 ZZ           0.0001      0.0001     -0.0001      0.1423     -0.0665     -0.0579
 XY          -0.0756     -0.0733      0.1423   -226.8743      2.2229     -3.0667
 YZ           0.1336     -0.0602     -0.0665      2.2229   -230.6202     -0.0240
 ZX          -0.0713      0.1353     -0.0579     -3.0667     -0.0240   -220.3187

 PIEZOELECTRIC TENSOR IONIC CONTR  for field in x, y, z        (C/m^2)
          XX          YY          ZZ          XY          YZ          ZX
  x     0.00039    -0.00019    -0.00018     0.00349    -0.65154     0.02746
  y    -0.00019     0.00039    -0.00018    -0.00363    -0.02826    -0.63681
  z    -0.00021    -0.00021     0.00041    -0.64681     0.00296    -0.00495