 vasp.5.4.4.18Apr17-6-g9f103f2a35 (build Aug 24 2017 11:22:49) complex

 executed on             LinuxIFC date 2023.12.30  15:49:15

 INCAR:
 POTCAR:    PAW_PBE In_d 06Sep2000
 POTCAR:    PAW_PBE Br 06Sep2000

 POTCAR:    PAW_PBE In_d 06Sep2000
   VRHFIN =In: s2p1

   TITEL  = PAW_PBE In_d 06Sep2000
   POMASS =  114.820; ZVAL   =   13.000    mass and valenz
   ENMAX  =  239.211; ENMIN  =  179.409 eV

 POTCAR:    PAW_PBE Br 06Sep2000
   VRHFIN =Br: s2p5

   TITEL  = PAW_PBE Br 06Sep2000
   POMASS =   79.904; ZVAL   =    7.000    mass and valenz
   ENMAX  =  216.285; ENMIN  =  162.214 eV

  PAW_PBE In_d 06Sep2000                :
  PAW_PBE Br 06Sep2000                  :

 POSCAR: In2 Br2
  positions in direct lattice
 exchange correlation table for  LEXCH =        8
   RHO(1)=    0.500       N(1)  =     2000
   RHO(2)=  100.500       N(2)  =     4000

 ion  position               nearest neighbor table
   1  0.393  0.393  0.250-   3 2.98   4 3.30   4 3.30   4 3.30   4 3.30   2 3.49   2 3.49
   2  0.607  0.607  0.750-   4 2.98   3 3.30   3 3.30   3 3.30   3 3.30   1 3.49   1 3.49
   3  0.151  0.151  0.250-   1 2.98   2 3.30   2 3.30   2 3.30   2 3.30
   4  0.849  0.849  0.750-   2 2.98   1 3.30   1 3.30   1 3.30   1 3.30

  LATTYP: Found a base centered orthorhombic cell.
 ALAT       =     4.5887499163
 B/A-ratio  =     2.6846643447
 C/A-ratio  =     1.0029787220

  Lattice vectors:

 A1 = (   2.2943749581,   6.1596266435,   0.0000000000)
 A2 = (   2.2943749581,  -6.1596266435,   0.0000000000)
 A3 = (   0.0000000000,   0.0000000000,  -4.6024185265)

Analysis of symmetry for initial positions (statically):
 Subroutine PRICEL returns:
 Original cell was already a primitive cell.

 Routine SETGRP: Setting up the symmetry group for a
 base centered orthorhombic supercell.

 Subroutine GETGRP returns: Found  2 space group operations
 (whereof  1 operations were pure point group operations)
 out of a pool of  8 trial point group operations.

The static configuration has the point symmetry C_1 .
 The point group associated with its full space group is S_2 .

Analysis of symmetry for dynamics (positions and initial velocities):
 Subroutine PRICEL returns:
 Original cell was already a primitive cell.

[...]

The dynamic configuration has the point symmetry C_1 .
 The point group associated with its full space group is S_2 .

 Subroutine INISYM returns: Found  2 space group operations
 (whereof  1 operations are pure point group operations),
 and found     1 'primitive' translations

 KPOINTS: pymatgen with grid density = 3000 / numb

Automatic generation of k-mesh.
Space group operators:
 irot       det(A)        alpha          n_x          n_y          n_z        tau_x        tau_y        tau_z
    1     1.000000     0.000000     1.000000     0.000000     0.000000     0.000000     0.000000     0.000000
    2    -1.000000     0.000000     1.000000     0.000000     0.000000     0.000000    -1.000000    -1.000000

 Subroutine IBZKPT returns following result:

 Found    388 irreducible k-points:

 Following reciprocal coordinates:
            Coordinates               Weight
  0.000000  0.000000  0.000000      1.000000
  0.125000 -0.000000  0.000000      2.000000
  0.250000 -0.000000  0.000000      2.000000
  0.375000 -0.000000  0.000000      2.000000
  0.500000 -0.000000  0.000000      1.000000
 -0.000000  0.125000  0.000000      2.000000
  0.125000  0.125000  0.000000      2.000000
  0.250000  0.125000  0.000000      2.000000
  0.375000  0.125000  0.000000      2.000000
  0.500000  0.125000  0.000000      2.000000
 -0.375000  0.125000  0.000000      2.000000
 -0.250000  0.125000  0.000000      2.000000
 -0.125000  0.125000  0.000000      2.000000
 -0.000000  0.250000  0.000000      2.000000
  0.125000  0.250000  0.000000      2.000000
  0.250000  0.250000  0.000000      2.000000
  0.375000  0.250000  0.000000      2.000000
  0.500000  0.250000  0.000000      2.000000
 -0.375000  0.250000  0.000000      2.000000
 -0.250000  0.250000  0.000000      2.000000
 -0.125000  0.250000  0.000000      2.000000
 -0.000000  0.375000  0.000000      2.000000
  0.125000  0.375000  0.000000      2.000000
  0.250000  0.375000  0.000000      2.000000
  0.375000  0.375000  0.000000      2.000000
  0.500000  0.375000  0.000000      2.000000
 -0.375000  0.375000  0.000000      2.000000
 -0.250000  0.375000  0.000000      2.000000
 -0.125000  0.375000  0.000000      2.000000
 -0.000000  0.500000  0.000000      1.000000
  0.125000  0.500000  0.000000      2.000000
  0.250000  0.500000  0.000000      2.000000
  0.375000  0.500000  0.000000      2.000000
  0.500000  0.500000  0.000000      1.000000
  0.000000  0.000000  0.083333      2.000000
  0.125000 -0.000000  0.083333      2.000000
  0.250000 -0.000000  0.083333      2.000000
  0.375000 -0.000000  0.083333      2.000000
  0.500000 -0.000000  0.083333      2.000000
 -0.375000  0.000000  0.083333      2.000000
 -0.250000  0.000000  0.083333      2.000000
 -0.125000  0.000000  0.083333      2.000000
 -0.000000  0.125000  0.083333      2.000000
  0.125000  0.125000  0.083333      2.000000
  0.250000  0.125000  0.083333      2.000000
  0.375000  0.125000  0.083333      2.000000
  0.500000  0.125000  0.083333      2.000000
 -0.375000  0.125000  0.083333      2.000000
 -0.250000  0.125000  0.083333      2.000000
 -0.125000  0.125000  0.083333      2.000000
 -0.000000  0.250000  0.083333      2.000000
  0.125000  0.250000  0.083333      2.000000
  0.250000  0.250000  0.083333      2.000000
  0.375000  0.250000  0.083333      2.000000
  0.500000  0.250000  0.083333      2.000000
 -0.375000  0.250000  0.083333      2.000000
 -0.250000  0.250000  0.083333      2.000000
 -0.125000  0.250000  0.083333      2.000000
 -0.000000  0.375000  0.083333      2.000000
  0.125000  0.375000  0.083333      2.000000
[...]
 -0.250000  0.250000  0.500000      2.000000
 -0.125000  0.250000  0.500000      2.000000
 -0.000000  0.375000  0.500000      2.000000
  0.125000  0.375000  0.500000      2.000000
  0.250000  0.375000  0.500000      2.000000
  0.375000  0.375000  0.500000      2.000000
  0.500000  0.375000  0.500000      2.000000
 -0.375000  0.375000  0.500000      2.000000
 -0.250000  0.375000  0.500000      2.000000
 -0.125000  0.375000  0.500000      2.000000
 -0.000000  0.500000  0.500000      1.000000
  0.125000  0.500000  0.500000      2.000000
  0.250000  0.500000  0.500000      2.000000
  0.375000  0.500000  0.500000      2.000000
  0.500000  0.500000  0.500000      1.000000

 Following cartesian coordinates:
            Coordinates               Weight
  0.000000  0.000000  0.000000      1.000000
  0.027241  0.010147  0.000000      2.000000
  0.054481  0.020293  0.000000      2.000000
  0.081722  0.030440  0.000000      2.000000
  0.108962  0.040587  0.000000      1.000000
 -0.027241  0.010147  0.000000      2.000000
  0.000000  0.020293  0.000000      2.000000
  0.027241  0.030440  0.000000      2.000000
  0.054481  0.040587  0.000000      2.000000
  0.081722  0.050734  0.000000      2.000000
 -0.108962 -0.020293  0.000000      2.000000
 -0.081722 -0.010147  0.000000      2.000000
 -0.054481  0.000000  0.000000      2.000000
 -0.054481  0.020293  0.000000      2.000000
 -0.027241  0.030440  0.000000      2.000000
  0.000000  0.040587  0.000000      2.000000
  0.027241  0.050734  0.000000      2.000000
  0.054481  0.060880  0.000000      2.000000
 -0.136203 -0.010147  0.000000      2.000000
 -0.108962  0.000000  0.000000      2.000000
 -0.081722  0.010147  0.000000      2.000000
 -0.081722  0.030440  0.000000      2.000000
 -0.054481  0.040587  0.000000      2.000000
 -0.027241  0.050734  0.000000      2.000000
  0.000000  0.060880  0.000000      2.000000
  0.027241  0.071027  0.000000      2.000000
 -0.163443  0.000000  0.000000      2.000000
 -0.136203  0.010147  0.000000      2.000000
 -0.108962  0.020293  0.000000      2.000000
 -0.108962  0.040587  0.000000      1.000000
 -0.081722  0.050734  0.000000      2.000000
 -0.054481  0.060880  0.000000      2.000000
 -0.027241  0.071027  0.000000      2.000000
  0.000000  0.081174  0.000000      1.000000
  0.000000  0.000000  0.018106      2.000000
  0.027241  0.010147  0.018106      2.000000
  0.054481  0.020293  0.018106      2.000000
  0.081722  0.030440  0.018106      2.000000
  0.108962  0.040587  0.018106      2.000000
 -0.081722 -0.030440  0.018106      2.000000
 -0.054481 -0.020293  0.018106      2.000000
 -0.027241 -0.010147  0.018106      2.000000
 -0.027241  0.010147  0.018106      2.000000
  0.000000  0.020293  0.018106      2.000000
  0.027241  0.030440  0.018106      2.000000
  0.054481  0.040587  0.018106      2.000000
  0.081722  0.050734  0.018106      2.000000
 -0.108962 -0.020293  0.018106      2.000000
 -0.081722 -0.010147  0.018106      2.000000
 -0.054481  0.000000  0.018106      2.000000
 -0.054481  0.020293  0.018106      2.000000
 -0.027241  0.030440  0.018106      2.000000
  0.000000  0.040587  0.018106      2.000000
  0.027241  0.050734  0.018106      2.000000
  0.054481  0.060880  0.018106      2.000000
 -0.136203 -0.010147  0.018106      2.000000
 -0.108962  0.000000  0.018106      2.000000
 -0.081722  0.010147  0.018106      2.000000
 -0.081722  0.030440  0.018106      2.000000
 -0.054481  0.040587  0.018106      2.000000
[...]
 -0.108962  0.000000  0.108639      2.000000
 -0.081722  0.010147  0.108639      2.000000
 -0.081722  0.030440  0.108639      2.000000
 -0.054481  0.040587  0.108639      2.000000
 -0.027241  0.050734  0.108639      2.000000
  0.000000  0.060880  0.108639      2.000000
  0.027241  0.071027  0.108639      2.000000
 -0.163443  0.000000  0.108639      2.000000
 -0.136203  0.010147  0.108639      2.000000
 -0.108962  0.020293  0.108639      2.000000
 -0.108962  0.040587  0.108639      1.000000
 -0.081722  0.050734  0.108639      2.000000
 -0.054481  0.060880  0.108639      2.000000
 -0.027241  0.071027  0.108639      2.000000
  0.000000  0.081174  0.108639      1.000000

 Subroutine IBZKPT_HF returns following result:

 Found    768 k-points in 1st BZ
 the following    768 k-points will be used (e.g. in the exchange kernel)
 Following reciprocal coordinates:   # in IRBZ
  0.000000  0.000000  0.000000    0.00130208   1 t-inv F
  0.125000 -0.000000  0.000000    0.00130208   2 t-inv F
  0.250000 -0.000000  0.000000    0.00130208   3 t-inv F
  0.375000 -0.000000  0.000000    0.00130208   4 t-inv F
  0.500000 -0.000000  0.000000    0.00130208   5 t-inv F
 -0.000000  0.125000  0.000000    0.00130208   6 t-inv F
  0.125000  0.125000  0.000000    0.00130208   7 t-inv F
  0.250000  0.125000  0.000000    0.00130208   8 t-inv F
  0.375000  0.125000  0.000000    0.00130208   9 t-inv F
  0.500000  0.125000  0.000000    0.00130208  10 t-inv F
 -0.375000  0.125000  0.000000    0.00130208  11 t-inv F
 -0.250000  0.125000  0.000000    0.00130208  12 t-inv F
 -0.125000  0.125000  0.000000    0.00130208  13 t-inv F
 -0.000000  0.250000  0.000000    0.00130208  14 t-inv F
  0.125000  0.250000  0.000000    0.00130208  15 t-inv F
  0.250000  0.250000  0.000000    0.00130208  16 t-inv F
  0.375000  0.250000  0.000000    0.00130208  17 t-inv F
  0.500000  0.250000  0.000000    0.00130208  18 t-inv F
[...]
  eigenvalues    EBANDS =        -2.03964999
  free energy    TOTEN  =        -2.03964999 eV

  energy without entropy =       -2.03964999

[...]

 change of polarisation eV/A/(eV/A) component  1 :     4.369    -0.000     0.000
 dielectric tensor                  component  1 :     7.077    -0.000     0.000

 Linear response to external field (no local field effect), progress :
  Direction:   2
  LATTYP: Found a base centered orthorhombic cell.
 ALAT       =     4.5887499163
 B/A-ratio  =     2.6846643447
 C/A-ratio  =     1.0029787220

[...]

 Linear response to external field (no local field effect), progress :
  Direction:   3
  LATTYP: Found a base centered orthorhombic cell.
 ALAT       =     4.5887499163
 B/A-ratio  =     2.6846643447
 C/A-ratio  =     1.0029787220

[...]

 HEAD OF MICROSCOPIC STATIC DIELECTRIC TENSOR (INDEPENDENT PARTICLE, excluding Hartree and local field effects)
           7.077467     0.000001     0.000001
          -0.000001     8.212748     0.000000
           0.000001    -0.000000     8.689386

 Linear response to external field, progress :
  Direction:   1
  LATTYP: Found a base centered orthorhombic cell.
 ALAT       =     4.5887499163
 B/A-ratio  =     2.6846643447
 C/A-ratio  =     1.0029787220

[...]

 PIEZOELECTRIC TENSOR FIELD DIRECTION 1  (e Angst)
     0.00042 -0.00026 -0.00268           ( -0.00000  0.00000 -0.00000)
    -0.00025  0.00039  0.00000           (  0.00000 -0.00000  0.00000)
    -0.00268  0.00000 -0.00083           ( -0.00000  0.00000 -0.00000)

 PIEZOELECTRIC TENSOR FIELD DIRECTION 1  (C/m^2)
     0.00005 -0.00003 -0.00033
    -0.00003  0.00005  0.00000
    -0.00033  0.00000 -0.00010

      POSITION         DIRECTION 1           BORN EFFECTIVE CHARGE    (rigid.aug.   ionic)
      0.00000      4.84697      1.15060     2.12750 -0.00003  0.00000 ( -6.90342 13.00000)
     -0.00000      7.47229      3.45181     2.12754  0.00003  0.00000 ( -6.90342 13.00000)
      0.00000      1.86358      1.15060    -2.12759 -0.00002 -0.00000 (  1.39277  7.00000)
      0.00000     10.45567      3.45181    -2.12767  0.00002 -0.00000 (  1.39277  7.00000)
    total drift (improves with k-points):  -0.00022  0.00000 -0.00000

[...]

 Linear response to external field, progress :
  Direction:   3
  LATTYP: Found a base centered orthorhombic cell.
 ALAT       =     4.5887499163
 B/A-ratio  =     2.6846643447
 C/A-ratio  =     1.0029787220

[...]

 change of polarisation eV/A/(eV/A) component  3 :     0.000     0.000     5.049
 dielectric tensor                  component  3 :     0.000     0.000     8.024

 PIEZOELECTRIC TENSOR FIELD DIRECTION 3  (e Angst)
    -0.00090 -0.00000  0.00003           ( -0.00000 -0.00000  0.00000)
    -0.00000 -0.00668  0.00005           ( -0.00000 -0.00000  0.00000)
     0.00003  0.00005  0.00348           (  0.00000  0.00000 -0.00000)

 PIEZOELECTRIC TENSOR FIELD DIRECTION 3  (C/m^2)
    -0.00011 -0.00000  0.00000
    -0.00000 -0.00082  0.00001
     0.00000  0.00001  0.00043

      POSITION         DIRECTION 3           BORN EFFECTIVE CHARGE    (rigid.aug.   ionic)
      0.00000      4.84697      1.15060    -0.00000  0.00107  2.20281 ( -6.90342 13.00000)
     -0.00000      7.47229      3.45181    -0.00000 -0.00107  2.20282 ( -6.90342 13.00000)
      0.00000      1.86358      1.15060     0.00000  0.00035 -2.20283 (  1.39277  7.00000)
      0.00000     10.45567      3.45181     0.00000 -0.00035 -2.20284 (  1.39277  7.00000)
    total drift (improves with k-points):   0.00000 -0.00000 -0.00004

[...]

 MACROSCOPIC STATIC DIELECTRIC TENSOR (including local field effects in DFT)
           6.485725     0.000001     0.000000
          -0.000001     7.596175     0.000000
           0.000001    -0.000000     8.023807

 Linear response:
   Degrees of freedom DOF   =            6
 Linear response progress:
  Degree of freedom:   1/  6
  LATTYP: Found a base centered orthorhombic cell.
 ALAT       =     4.5887499163
 B/A-ratio  =     2.6846643447
 C/A-ratio  =     1.0029787220

[...]

 INTERNAL STRAIN TENSOR  FOR ION    1  DIRECTION 1   (eV/Angst):
     0.00028 -0.47394  0.00556
    -0.38492  0.00037  0.00000
    -0.01091 -0.00000 -0.00061

 POSITION                   FORCE-CONSTANT FOR ION    1 DIRECTION 1 (eV/Angst/Angst)
      0.00000      4.84697      1.15060        -0.312333      0.000421      0.000016
     -0.00000      7.47229      3.45181        -0.109693     -0.000150     -0.000001
      0.00000      1.86358      1.15060         0.095979     -0.000103     -0.000005
      0.00000     10.45567      3.45181         0.326046     -0.000168     -0.000010
    total drift:                                0.000000     -0.000000      0.000000

 BORN EFFECTIVE CHARGE FOR ION    1 DIRECTION 1 :   2.128  -0.000   0.000
                   rigid augmentation           :  -6.903   0.000   0.000
                   ionic contribution           :  13.000   0.000   0.000
                   Berry contribution           :  -3.969  -0.000   0.000

 Linear response progress:
  Degree of freedom:   2/  6
  LATTYP: Found a base centered orthorhombic cell.
 ALAT       =     4.5887499163
 B/A-ratio  =     2.6846643447
 C/A-ratio  =     1.0029787220

[...]

 Linear response progress:
  Degree of freedom:   6/  6
  LATTYP: Found a base centered orthorhombic cell.
 ALAT       =     4.5887499163
 B/A-ratio  =     2.6846643447
 C/A-ratio  =     1.0029787220

[...]

The dynamic configuration has the point symmetry C_1 .

[...]

----------------------------------------- Iteration   12(  11)  ---------------------------------------

 Broyden mixing:
  rms(total) = 0.31022E-03    rms(broyden)= 0.31022E-03
  rms(prec ) = 0.31782E-03
  weight for this iteration     100.00

 eigenvalues of (default mixing * dielectric matrix)
  average eigenvalue GAMMA=   1.6254
  3.1996  2.8793  2.2465  1.6104  1.1307  0.9291  0.8099  0.9114  0.9114

 Free energy of the ion-electron system (eV)
  -Hartree energ DENC   =        -0.07660580
  -V(xc)+E(xc)   XCENC  =         0.00071754
  PAW double counting   =         0.00019437       -0.00019426
  entropy T*S    EENTRO =         0.00000000
  eigenvalues    EBANDS =        -0.06989700
  free energy    TOTEN  =        -0.14578515 eV

  energy without entropy =       -0.14578515

[...]

 k-point 388 :       0.5000    0.5000    0.5000
  band No.  band energies     occupation
      1      -0.0828      0.00000
      2       0.0832      0.00000
      3       0.0099      0.00000
      4      -0.0102      0.00000
      5       0.0142      0.00000
      6      -0.0144      0.00000
      7       0.0107      0.00000
      8      -0.0109      0.00000
      9      -0.0022      0.00000
     10       0.0020      0.00000
     11      -0.0805      0.00000
     12       0.0804      0.00000
     13      -0.3170      0.00000
     14       0.3171      0.00000
     15      -0.5176      0.00000
     16       0.5179      0.00000
     17      -0.0837      0.00000
     18       0.0840      0.00000
     19      -0.4079      0.00000
     20       0.4080      0.00000
     21      -0.1260      0.00000
     22       0.1260      0.00000
     23      -0.7815      0.00000
     24       0.7815      0.00000

------------------------ aborting loop because EDIFF is reached ----------------------------------------

 INTERNAL STRAIN TENSOR  FOR ION    3  DIRECTION 3   (eV/Angst):
    -0.00230  0.02496 -0.00004
    -0.02581  0.00366  0.17950
    -0.00005  0.22532 -0.00081

 POSITION                   FORCE-CONSTANT FOR ION    3 DIRECTION 3 (eV/Angst/Angst)
      0.00000      4.84697      1.15060        -0.000006     -0.000135      0.000172
     -0.00000      7.47229      3.45181        -0.000007      0.000114      0.265472
      0.00000      1.86358      1.15060         0.000022      0.000037     -0.766548
      0.00000     10.45567      3.45181        -0.000009     -0.000016      0.500903
    total drift:                               -0.000000      0.000000      0.000000

 BORN EFFECTIVE CHARGE FOR ION    3 DIRECTION 3 :  -0.000  -0.000  -2.203
                   rigid augmentation           :   0.000   0.000   1.393
                   ionic contribution           :   0.000   0.000   7.000
                   Berry contribution           :  -0.000  -0.000 -10.596

  LATTYP: Found a base centered orthorhombic cell.
 ALAT       =     4.5887499163
 B/A-ratio  =     2.6846643447
 C/A-ratio  =     1.0029787220

  Lattice vectors:

 A1 = (   2.2943749581,   6.1596266435,   0.0000000000)
 A2 = (   2.2943749581,  -6.1596266435,   0.0000000000)
 A3 = (   0.0000000000,   0.0000000000,  -4.6024185265)

Analysis of symmetry for initial positions (statically):
 Subroutine PRICEL returns:
 Original cell was already a primitive cell.

[...]

The static configuration has the point symmetry C_1 .
 The point group associated with its full space group is S_2 .

Analysis of symmetry for dynamics (positions and initial velocities):
 Subroutine PRICEL returns:
 Original cell was already a primitive cell.

 Routine SETGRP: Setting up the symmetry group for a
 base centered orthorhombic supercell.

 Subroutine GETGRP returns: Found  2 space group operations
 (whereof  1 operations were pure point group operations)
 out of a pool of  8 trial point group operations.

The dynamic configuration has the point symmetry C_1 .
 The point group associated with its full space group is S_2 .

 Subroutine INISYM returns: Found  2 space group operations
 (whereof  1 operations are pure point group operations),
 and found     1 'primitive' translations

 MACROSCOPIC STATIC DIELECTRIC TENSOR (including local field effects in DFT)
           6.485725     0.000001     0.000000
          -0.000001     7.596175     0.000000
           0.000001    -0.000000     8.023807

 PIEZOELECTRIC TENSOR  for field in x, y, z        (e  Angst)
          XX          YY          ZZ          XY          YZ          ZX
  x     0.00042     0.00039    -0.00083    -0.00025     0.00000    -0.00268
  y     0.01009    -0.00268    -0.00700     0.00044     0.03551     0.00000
  z    -0.00090    -0.00668     0.00348    -0.00000     0.00005     0.00003

 PIEZOELECTRIC TENSOR  for field in x, y, z        (C/m^2)
          XX          YY          ZZ          XY          YZ          ZX
  x     0.00000     0.00000     0.00000     0.00000     0.00000     0.00000
  y     0.00000     0.00000     0.00000     0.00000     0.00000     0.00000
  z     0.00000     0.00000     0.00000     0.00000     0.00000     0.00000

 BORN EFFECTIVE CHARGES (in e, cummulative output)
 ion    1
    1     2.12756    -0.00003     0.00000
    2     0.00012     2.46959    -0.00001
    3    -0.00000     0.00107     2.20282
 ion    2
    1     2.12760     0.00003     0.00000
    2    -0.00012     2.46952     0.00002
    3    -0.00000    -0.00107     2.20282
 ion    3
    1    -2.12754    -0.00002    -0.00000
    2    -0.00010    -2.46950     0.00027
    3     0.00000     0.00035    -2.20282
 ion    4
    1    -2.12762     0.00002    -0.00000
    2     0.00010    -2.46961    -0.00027
    3     0.00000    -0.00035    -2.20283

 INTERNAL STRAIN TENSOR FOR ION    1 for displacements in x,y,z  (eV/Angst):
          X           Y           Z          XY          YZ          ZX
  x     0.00028     0.00037    -0.00061    -0.38492    -0.00000     0.00556
  y    -2.31543    -4.05902    -1.25370    -0.00041    -0.05533    -0.00001
  z     0.00789    -0.00856     0.00326    -0.00715     0.41323     0.00002

[...]

 INTERNAL STRAIN TENSOR FOR ION    4 for displacements in x,y,z  (eV/Angst):
          X           Y           Z          XY          YZ          ZX
  x     0.00027     0.00024    -0.00059    -0.05437    -0.00008    -0.00867
  y     0.16324    -3.53956     0.18142    -0.00060    -0.02690    -0.00000
  z     0.00230    -0.00366     0.00081     0.02581    -0.22532     0.00004

 SECOND DERIVATIVES (NOT SYMMETRIZED)
               1X          1Y          1Z          2X          2Y          2Z          3X          3Y          3Z          4X          4Y          4Z
  1X    -0.312333    0.000421    0.000016   -0.109693   -0.000150   -0.000001    0.095979   -0.000103   -0.000005    0.326046   -0.000168   -0.000010
  1Y    -0.000035   -2.031078    0.000356    0.000005    1.015693   -0.000019    0.000013    1.019883   -0.000172    0.000018   -0.004498   -0.000166
  1Z    -0.000010   -0.000426   -0.607214    0.000002    0.000229    0.386861    0.000001    0.000022   -0.021203    0.000008    0.000175    0.241556
  2X    -0.109693   -0.000150   -0.000001   -0.312333    0.000421    0.000016    0.326046   -0.000168   -0.000010    0.095979   -0.000103   -0.000005
  2Y     0.000005    1.015693   -0.000019   -0.000035   -2.031078    0.000356    0.000018   -0.004498   -0.000166    0.000013    1.019883   -0.000172
  2Z     0.000002    0.000229    0.386861   -0.000010   -0.000426   -0.607214    0.000008    0.000175    0.241556    0.000001    0.000022   -0.021203
  3X     0.099378    0.000028    0.000010    0.334133    0.000033   -0.000020   -0.902693   -0.000084    0.000017    0.469181    0.000022   -0.000007
  3Y    -0.000070    1.017141   -0.000098   -0.000033   -0.007244    0.000309    0.000148   -1.612085   -0.000099   -0.000046    0.602188   -0.000112
  3Z    -0.000006   -0.000135    0.000172   -0.000007    0.000114    0.265472    0.000022    0.000037   -0.766548   -0.000009   -0.000016    0.500903
  4X     0.334133    0.000033   -0.000020    0.099378    0.000028    0.000010    0.469181    0.000022   -0.000007   -0.902693   -0.000084    0.000017
  4Y    -0.000033   -0.007244    0.000309   -0.000070    1.017141   -0.000098   -0.000046    0.602188   -0.000112    0.000148   -1.612085   -0.000099
  4Z    -0.000007    0.000114    0.265472   -0.000006   -0.000135    0.000172   -0.000009   -0.000016    0.500903    0.000022    0.000037   -0.766548

 Eigenvectors and eigenvalues of the dynamical matrix

   1 f  =    3.040841 THz    19.106165 2PiTHz  101.431523 cm-1    12.575911 meV
             X         Y         Z           dx          dy          dz
      0.000000  4.846965  1.150605    -0.000028    0.486076   -0.000028
     -0.000000  7.472290  3.451814     0.000028   -0.486076    0.000028
      0.000000  1.863581  1.150605     0.000012   -0.513546    0.000035
      0.000000 10.455674  3.451814    -0.000012    0.513546   -0.000035

[...]

   9 f  =    0.583205 THz     3.664387 2PiTHz   19.453632 cm-1     2.411944 meV
             X         Y         Z           dx          dy          dz
      0.000000  4.846965  1.150605     0.698890    0.000079    0.000001
     -0.000000  7.472290  3.451814    -0.698890   -0.000079   -0.000001
      0.000000  1.863581  1.150605    -0.107483    0.000034   -0.000001
      0.000000 10.455674  3.451814     0.107483   -0.000034    0.000001

  10 f/i=    0.003051 THz     0.019171 2PiTHz    0.101776 cm-1     0.012619 meV
             X         Y         Z           dx          dy          dz
      0.000000  4.846965  1.150605    -0.010525   -0.542234    0.006692
     -0.000000  7.472290  3.451814    -0.010525   -0.542234    0.006692
      0.000000  1.863581  1.150605    -0.008733   -0.453563    0.005575
      0.000000 10.455674  3.451814    -0.008733   -0.453563    0.005575

[...]

  12 f/i=    0.050994 THz     0.320402 2PiTHz    1.700961 cm-1     0.210892 meV
             X         Y         Z           dx          dy          dz
      0.000000  4.846965  1.150605     0.000006    0.006651    0.562752
     -0.000000  7.472290  3.451814     0.000006    0.006651    0.562752
      0.000000  1.863581  1.150605     0.000017    0.005613    0.428058
      0.000000 10.455674  3.451814     0.000017    0.005613    0.428058

 MACROSCOPIC STATIC DIELECTRIC TENSOR IONIC CONTRIBUTION
          29.436337     0.002340     0.001000
           0.002340    16.754890    -0.000471
           0.001000    -0.000471    55.314285

 ELASTIC MODULI IONIC CONTR (kBar)
 Direction    XX          YY          ZZ          XY          YZ          ZX
 XX         -55.0291    -49.0006    -30.9496      0.0025     -1.0059     -0.0002
 YY         -49.0006   -195.5133    -23.8664     -0.0147     -1.9781     -0.0005
 ZZ         -30.9496    -23.8664    -17.4968     -0.0519     -0.5260      0.0003
 XY           0.0025     -0.0147     -0.0519    -23.5027      0.1286      0.2349
 YZ          -1.0059     -1.9781     -0.5260      0.1286     -4.5318     -0.0001
 ZX          -0.0002     -0.0005      0.0003      0.2349     -0.0001     -0.0039

 PIEZOELECTRIC TENSOR IONIC CONTR  for field in x, y, z        (C/m^2)
          XX          YY          ZZ          XY          YZ          ZX
  x     0.00001     0.00000     0.00001     0.00002     0.00000    -0.00000
  y    -0.00002     0.00001    -0.00001    -0.00008     0.00000     0.00000
  z    -0.00029    -0.00015    -0.00016    -0.00000    -0.00000     0.00000