 vasp.5.4.4.18Apr17-6-g9f103f2a35 (build Aug 24 2017 11:22:49) complex

 executed on             LinuxIFC date 2023.12.25  13:07:46

 INCAR:
 POTCAR:    PAW_PBE K_sv 06Sep2000
 POTCAR:    PAW_PBE Cl 06Sep2000

 POTCAR:    PAW_PBE K_sv 06Sep2000
   VRHFIN =K:  3s3p4s

   TITEL  = PAW_PBE K_sv 06Sep2000
   POMASS =   39.098; ZVAL   =    9.000    mass and valenz
   ENMAX  =  259.264; ENMIN  =  194.448 eV

 POTCAR:    PAW_PBE Cl 06Sep2000
   VRHFIN =Cl: s2p5

   TITEL  = PAW_PBE Cl 06Sep2000
   POMASS =   35.453; ZVAL   =    7.000    mass and valenz
   ENMAX  =  262.472; ENMIN  =  196.854 eV

  PAW_PBE K_sv 06Sep2000                :
  PAW_PBE Cl 06Sep2000                  :

 POSCAR: K1 Cl1
  positions in direct lattice
 exchange correlation table for  LEXCH =        8
   RHO(1)=    0.500       N(1)  =     2000
   RHO(2)=  100.500       N(2)  =     4000

 ion  position               nearest neighbor table
   1  0.000  0.000  0.000-   2 3.14   2 3.14   2 3.14   2 3.14   2 3.14   2 3.14
   2  0.500  0.500  0.500-   1 3.14   1 3.14   1 3.14   1 3.14   1 3.14   1 3.14

  LATTYP: Found a face centered cubic cell.
 ALAT       =     6.2837421173

  Lattice vectors:

 A1 = (  -3.1418710587,   0.0000000000,   3.1418710587)
 A2 = (   0.0000000000,   3.1418710587,   3.1418710587)
 A3 = (  -3.1418710587,   3.1418710587,   0.0000000000)

Analysis of symmetry for initial positions (statically):
 Subroutine PRICEL returns:
 Original cell was already a primitive cell.

 Routine SETGRP: Setting up the symmetry group for a
 face centered cubic supercell.

 Subroutine GETGRP returns: Found  8 space group operations
 (whereof  8 operations were pure point group operations)
 out of a pool of 48 trial point group operations.

The static configuration has the point symmetry C_4v.

Analysis of symmetry for dynamics (positions and initial velocities):
 Subroutine PRICEL returns:
 Original cell was already a primitive cell.

[...]

The dynamic configuration has the point symmetry C_4v.

 Subroutine INISYM returns: Found  8 space group operations
 (whereof  8 operations are pure point group operations),
 and found     1 'primitive' translations

 KPOINTS: pymatgen with grid density = 3000 / numb

Automatic generation of k-mesh.
Space group operators:
 irot       det(A)        alpha          n_x          n_y          n_z        tau_x        tau_y        tau_z
    1     1.000000     0.000001     1.000000     0.000000     0.000000     0.000000     0.000000     0.000000
    2     1.000000    90.000000    -1.000000     0.000000    -0.000000     0.000000     0.000000     0.000000
    3    -1.000000   180.000000     0.000000     0.000000    -1.000000     0.000000     0.000000     0.000000
    4    -1.000000   180.000000    -0.000000     0.707107     0.707107     0.000000     0.000000     0.000000
    5    -1.000000   180.000000    -0.000000     1.000000     0.000000     0.000000     0.000000     0.000000
    6     1.000000    90.000000     1.000000     0.000000     0.000000     0.000000     0.000000     0.000000
    7     1.000000   180.000000     1.000000     0.000000     0.000000     0.000000     0.000000     0.000000
    8    -1.000000   180.000000    -0.000000    -0.707107     0.707107     0.000000     0.000000     0.000000

 Subroutine IBZKPT returns following result:

 Found    163 irreducible k-points:

 Following reciprocal coordinates:
            Coordinates               Weight
  0.000000  0.000000  0.000000      1.000000
  0.083333 -0.000000 -0.000000      8.000000
  0.166667 -0.000000 -0.000000      8.000000
  0.250000  0.000000  0.000000      8.000000
  0.333333 -0.000000  0.000000      8.000000
  0.416667  0.000000  0.000000      8.000000
  0.500000  0.000000  0.000000      4.000000
  0.083333  0.083333 -0.000000      4.000000
  0.166667  0.083333  0.000000     16.000000
  0.250000  0.083333 -0.000000     16.000000
  0.333333  0.083333  0.000000     16.000000
  0.416667  0.083333 -0.000000     16.000000
  0.500000  0.083333 -0.000000     16.000000
 -0.416667  0.083333 -0.000000     16.000000
 -0.333333  0.083333  0.000000     16.000000
 -0.250000  0.083333 -0.000000     16.000000
 -0.166667  0.083333 -0.000000     16.000000
 -0.083333  0.083333  0.000000      8.000000
  0.166667  0.166667 -0.000000      4.000000
  0.250000  0.166667 -0.000000     16.000000
  0.333333  0.166667 -0.000000     16.000000
  0.416667  0.166667  0.000000     16.000000
  0.500000  0.166667  0.000000     16.000000
 -0.416667  0.166667 -0.000000     16.000000
 -0.333333  0.166667 -0.000000     16.000000
 -0.250000  0.166667  0.000000     16.000000
 -0.166667  0.166667  0.000000      8.000000
  0.250000  0.250000 -0.000000      4.000000
  0.333333  0.250000 -0.000000     16.000000
  0.416667  0.250000 -0.000000     16.000000
  0.500000  0.250000 -0.000000     16.000000
 -0.416667  0.250000 -0.000000     16.000000
 -0.333333  0.250000 -0.000000     16.000000
 -0.250000  0.250000 -0.000000      8.000000
  0.333333  0.333333 -0.000000      4.000000
  0.416667  0.333333 -0.000000     16.000000
  0.500000  0.333333 -0.000000     16.000000
 -0.416667  0.333333 -0.000000     16.000000
 -0.333333  0.333333 -0.000000      8.000000
  0.416667  0.416667 -0.000000      4.000000
  0.500000  0.416667 -0.000000     16.000000
 -0.416667  0.416667  0.000000      8.000000
  0.500000  0.500000 -0.000000      2.000000
  0.083333 -0.000000  0.083333      2.000000
  0.166667  0.000000  0.083333      8.000000
  0.250000 -0.000000  0.083333      8.000000
  0.333333 -0.000000  0.083333      8.000000
  0.416667 -0.000000  0.083333      8.000000
  0.500000 -0.000000  0.083333      8.000000
 -0.416667  0.000000  0.083333      8.000000
 -0.333333  0.000000  0.083333      8.000000
 -0.250000 -0.000000  0.083333      8.000000
 -0.166667 -0.000000  0.083333      8.000000
 -0.083333 -0.000000  0.083333      4.000000
  0.250000  0.166667  0.083333      8.000000
  0.333333  0.166667  0.083333     16.000000
  0.416667  0.166667  0.083333     16.000000
  0.500000  0.166667  0.083333     16.000000
 -0.416667  0.166667  0.083333      8.000000
  0.166667  0.250000  0.083333      8.000000
[...]
  0.333333 -0.083333  0.250000      8.000000
  0.333333 -0.000000  0.333333      2.000000
  0.416667 -0.000000  0.333333      8.000000
  0.500000  0.000000  0.333333      8.000000
 -0.416667  0.000000  0.333333      8.000000
 -0.333333  0.000000  0.333333      4.000000
  0.416667 -0.250000  0.333333      8.000000
  0.416667 -0.166667  0.333333     16.000000
  0.500000 -0.166667  0.333333      4.000000
  0.416667 -0.083333  0.333333      8.000000
  0.416667 -0.000000  0.416667      2.000000
  0.500000 -0.000000  0.416667      8.000000
 -0.416667 -0.000000  0.416667      4.000000
  0.500000 -0.083333  0.416667      4.000000
  0.500000 -0.000000  0.500000      1.000000

 Following cartesian coordinates:
            Coordinates               Weight
  0.000000  0.000000  0.000000      1.000000
 -0.013262 -0.013262  0.013262      8.000000
 -0.026523 -0.026523  0.026523      8.000000
 -0.039785 -0.039785  0.039785      8.000000
 -0.053047 -0.053047  0.053047      8.000000
 -0.066309 -0.066309  0.066309      8.000000
 -0.079570 -0.079570  0.079570      4.000000
  0.000000 -0.000000  0.026523      4.000000
 -0.013262 -0.013262  0.039785     16.000000
 -0.026523 -0.026523  0.053047     16.000000
 -0.039785 -0.039785  0.066309     16.000000
 -0.053047 -0.053047  0.079570     16.000000
 -0.066309 -0.066309  0.092832     16.000000
  0.079570  0.079570 -0.053047     16.000000
  0.066309  0.066309 -0.039785     16.000000
  0.053047  0.053047 -0.026523     16.000000
  0.039785  0.039785 -0.013262     16.000000
  0.026523  0.026523 -0.000000      8.000000
  0.000000  0.000000  0.053047      4.000000
 -0.013262 -0.013262  0.066309     16.000000
 -0.026523 -0.026523  0.079570     16.000000
 -0.039785 -0.039785  0.092832     16.000000
 -0.053047 -0.053047  0.106094     16.000000
  0.092832  0.092832 -0.039785     16.000000
  0.079570  0.079570 -0.026523     16.000000
  0.066309  0.066309 -0.013262     16.000000
  0.053047  0.053047 -0.000000      8.000000
  0.000000  0.000000  0.079570      4.000000
 -0.013262 -0.013262  0.092832     16.000000
 -0.026523 -0.026523  0.106094     16.000000
 -0.039785 -0.039785  0.119356     16.000000
  0.106094  0.106094 -0.026523     16.000000
  0.092832  0.092832 -0.013262     16.000000
  0.079570  0.079570  0.000000      8.000000
  0.000000 -0.000000  0.106094      4.000000
 -0.013262 -0.013262  0.119356     16.000000
 -0.026523 -0.026523  0.132617     16.000000
  0.119356  0.119356 -0.013262     16.000000
  0.106094  0.106094  0.000000      8.000000
  0.000000  0.000000  0.132617      4.000000
 -0.013262 -0.013262  0.145879     16.000000
  0.132617  0.132617 -0.000000      8.000000
  0.000000  0.000000  0.159141      2.000000
 -0.026523  0.000000  0.000000      2.000000
 -0.039785 -0.013262  0.013262      8.000000
 -0.053047 -0.026523  0.026523      8.000000
 -0.066309 -0.039785  0.039785      8.000000
 -0.079570 -0.053047  0.053047      8.000000
 -0.092832 -0.066309  0.066309      8.000000
  0.053047  0.079570 -0.079570      8.000000
  0.039785  0.066309 -0.066309      8.000000
  0.026523  0.053047 -0.053047      8.000000
  0.013262  0.039785 -0.039785      8.000000
  0.000000  0.026523 -0.026523      4.000000
 -0.026523  0.000000  0.053047      8.000000
 -0.039785 -0.013262  0.066309     16.000000
 -0.053047 -0.026523  0.079570     16.000000
 -0.066309 -0.039785  0.092832     16.000000
  0.079570  0.106094 -0.053047      8.000000
  0.000000  0.026523  0.053047      8.000000
[...]
 -0.106094 -0.026523 -0.000000      8.000000
 -0.106094 -0.000000 -0.000000      2.000000
 -0.119356 -0.013262  0.013262      8.000000
 -0.132617 -0.026523  0.026523      8.000000
  0.013262  0.119356 -0.119356      8.000000
  0.000000  0.106094 -0.106094      4.000000
 -0.159141 -0.053047 -0.026523      8.000000
 -0.145879 -0.039785 -0.013262     16.000000
 -0.159141 -0.053047  0.000000      4.000000
 -0.132617 -0.026523  0.000000      8.000000
 -0.132617  0.000000  0.000000      2.000000
 -0.145879 -0.013262  0.013262      8.000000
  0.000000  0.132617 -0.132617      4.000000
 -0.159141 -0.026523 -0.000000      4.000000
 -0.159141  0.000000  0.000000      1.000000

 Subroutine IBZKPT_HF returns following result:

 Found   1728 k-points in 1st BZ
 the following   1728 k-points will be used (e.g. in the exchange kernel)
 Following reciprocal coordinates:   # in IRBZ
  0.000000  0.000000  0.000000    0.00057870   1 t-inv F
  0.083333 -0.000000 -0.000000    0.00057870   2 t-inv F
  0.166667 -0.000000 -0.000000    0.00057870   3 t-inv F
  0.250000  0.000000  0.000000    0.00057870   4 t-inv F
  0.333333 -0.000000  0.000000    0.00057870   5 t-inv F
  0.416667  0.000000  0.000000    0.00057870   6 t-inv F
  0.500000  0.000000  0.000000    0.00057870   7 t-inv F
  0.083333  0.083333 -0.000000    0.00057870   8 t-inv F
  0.166667  0.083333  0.000000    0.00057870   9 t-inv F
  0.250000  0.083333 -0.000000    0.00057870  10 t-inv F
  0.333333  0.083333  0.000000    0.00057870  11 t-inv F
  0.416667  0.083333 -0.000000    0.00057870  12 t-inv F
[...]
      9       3.3776      0.00000
     10       6.5586      0.00000
     11       6.5586      0.00000
     12       6.5586      0.00000
     13       7.4376      0.00000
     14       7.4376      0.00000
     15      11.1742      0.00000
     16      14.6303      0.00000

[...]

 soft charge-density along one line, spin component           1
         0         1         2         3         4         5         6         7         8         9
 total charge-density along one line

------------------------ aborting loop because EDIFF is reached ----------------------------------------

  FORCE on cell =-STRESS in cart. coord.  units (eV):
  Direction    XX          YY          ZZ          XY          YZ          ZX
  Alpha Z    43.34699    43.34699    43.34699
  Ewald    -280.08577  -280.08577  -280.08577     0.00000     0.00000    -0.00000
  Hartree    93.25378    93.25378    93.25378    -0.00000     0.00000    -0.00000
  E(xc)     -63.73358   -63.73358   -63.73358    -0.00000     0.00000    -0.00000
  Local     -45.43798   -45.43798   -45.43798     0.00001    -0.00001     0.00001
  n-local    27.50189    27.61602    27.38776    -0.29265     0.04315     0.11893
  augment   -10.63992   -10.63992   -10.63992    -0.00001     0.00001    -0.00001
  Kinetic   236.13040   236.64244   235.61835    -2.50051     0.35795     0.96702
  Fock        0.00000     0.00000     0.00000     0.00000     0.00000     0.00000
  Total       0.33580     0.33580     0.33580     0.00000    -0.00000     0.00000
  in kB       8.67360     8.67359     8.67359     0.00000    -0.00000     0.00000

 VOLUME and BASIS-vectors are now :
  energy-cutoff  :      520.00
  volume of cell :       62.03
      direct lattice vectors                 reciprocal lattice vectors
    -3.141871059  0.000000000  3.141871059    -0.159140840 -0.159140840  0.159140840
     0.000000000  3.141871059  3.141871059     0.159140840  0.159140840  0.159140840
    -3.141871059  3.141871059  0.000000000    -0.159140840  0.159140840 -0.159140840

  length of vectors
     4.443276662  4.443276662  4.443276662     0.275640021  0.275640021  0.275640021

 FORCES acting on ions
    electron-ion (+dipol)            ewald-force                    non-local-force                 convergence-correction
   -.142E-04 -.186E-13 -.788E-14   0.148E-04 -.348E-14 -.755E-14   0.117E-05 -.203E-23 0.153E-22   -.121E-05 -.363E-11 -.364E-11
   0.876E-05 -.347E-12 -.113E-11   -.148E-04 0.318E-14 0.681E-14   0.307E-05 -.287E-23 0.392E-23   0.255E-05 -.490E-10 -.490E-10
   -.539E-05 -.366E-12 -.114E-11   -.813E-17 -.304E-15 -.733E-15   0.424E-05 -.490E-23 0.193E-22   0.134E-05 -.527E-10 -.527E-10

 POSITION                                       TOTAL-FORCE (eV/Angst)
      0.00000      0.00000      0.00000         0.000000     -0.000000     -0.000000
     -3.14187      3.14187      3.14187        -0.000000      0.000000      0.000000
    total drift:                                0.000000     -0.000000     -0.000000

  FREE ENERGIE OF THE ION-ELECTRON SYSTEM (eV)
  free  energy   TOTEN  =        -6.80239997 eV

  energy  without entropy=       -6.80239997  energy(sigma->0) =       -6.80239997

 Found     4 degrees of freedom:

     directions for atom     1:  y
     directions for atom     2:  y
 Linear response reoptimize wavefunctions
 Linear response to external field (no local field effect), progress :
  Direction:   1
  LATTYP: Found a face centered cubic cell.
 ALAT       =     6.2837421173

[...]

----------------------------------------- Iteration    1(   1)  ---------------------------------------

 Free energy of the ion-electron system (eV)
  -Hartree energ DENC   =         0.00000000
  -V(xc)+E(xc)   XCENC  =         0.00000000
  PAW double counting   =         0.00000000        0.00000000
  entropy T*S    EENTRO =         0.00000000
  eigenvalues    EBANDS =        -0.26032876
  free energy    TOTEN  =        -0.26032876 eV

  energy without entropy =       -0.26032876

[...]

 change of polarisation eV/A/(eV/A) component  1 :     0.542    -0.055     0.021
 dielectric tensor                  component  1 :     2.581    -0.161     0.060

 Linear response to external field (no local field effect), progress :
  Direction:   2
  LATTYP: Found a face centered cubic cell.
 ALAT       =     6.2837421173

[...]

The dynamic configuration has the point symmetry C_1h.

[...]

 Linear response to external field (no local field effect), progress :
  Direction:   3
  LATTYP: Found a face centered cubic cell.
 ALAT       =     6.2837421173

[...]

 HEAD OF MICROSCOPIC STATIC DIELECTRIC TENSOR (INDEPENDENT PARTICLE, excluding Hartree and local field effects)
           2.580827    -0.000000     0.000000
          -0.000000     2.580830    -0.000000
           0.000000    -0.000000     2.580830

 Linear response to external field, progress :
  Direction:   1
  LATTYP: Found a face centered cubic cell.
 ALAT       =     6.2837421173

[...]

 PIEZOELECTRIC TENSOR FIELD DIRECTION 1  (e Angst)
     0.00004  0.00000  0.00000           ( -0.00000  0.00000  0.00000)
    -0.00000  0.00002 -0.00000           (  0.00000  0.00000 -0.00000)
    -0.00000 -0.00000  0.00002           (  0.00000 -0.00000  0.00000)

 PIEZOELECTRIC TENSOR FIELD DIRECTION 1  (C/m^2)
     0.00001  0.00000  0.00000
    -0.00000  0.00001 -0.00000
    -0.00000 -0.00000  0.00001

      POSITION         DIRECTION 1           BORN EFFECTIVE CHARGE    (rigid.aug.   ionic)
      0.00000      0.00000      0.00000     1.12523  0.00000  0.00000 ( -1.48764  9.00000)
     -3.14187      3.14187      3.14187    -1.12521 -0.00000 -0.00000 (  0.94324  7.00000)
    total drift (improves with k-points):   0.00002 -0.00000 -0.00000

[...]

 Linear response to external field, progress :
  Direction:   3
  LATTYP: Found a face centered cubic cell.
 ALAT       =     6.2837421173

[...]

 change of polarisation eV/A/(eV/A) component  3 :    -0.000     0.001     0.456
 dielectric tensor                  component  3 :    -0.000     0.003     2.329

 PIEZOELECTRIC TENSOR FIELD DIRECTION 3  (e Angst)
    -0.00000 -0.00000 -0.00004           (  0.00000 -0.00000  0.00000)
    -0.00000 -0.00001  0.00000           ( -0.00000  0.00000  0.00000)
    -0.00004  0.00000 -0.00000           (  0.00000  0.00000  0.00000)

 PIEZOELECTRIC TENSOR FIELD DIRECTION 3  (C/m^2)
    -0.00000 -0.00000 -0.00001
    -0.00000 -0.00000  0.00000
    -0.00001  0.00000 -0.00000

      POSITION         DIRECTION 3           BORN EFFECTIVE CHARGE    (rigid.aug.   ionic)
      0.00000      0.00000      0.00000     0.00000  0.00000  1.12522 ( -1.48764  9.00000)
     -3.14187      3.14187      3.14187    -0.00000  0.00000 -1.12522 (  0.94324  7.00000)
    total drift (improves with k-points):  -0.00000  0.00000  0.00001

[...]

 MACROSCOPIC STATIC DIELECTRIC TENSOR (including local field effects in DFT)
           2.328865    -0.000000     0.000000
          -0.000000     2.328867    -0.000000
           0.000000    -0.000000     2.328867

 Linear response:
   Degrees of freedom DOF   =            4
 Linear response progress:
  Degree of freedom:   1/  4
  LATTYP: Found a face centered cubic cell.
 ALAT       =     6.2837421173

[...]

 INTERNAL STRAIN TENSOR  FOR ION    1  DIRECTION 1   (eV/Angst):
     0.00039  0.00000 -0.00000
     0.00000 -0.00014 -0.00000
    -0.00000 -0.00000 -0.00014

 POSITION                   FORCE-CONSTANT FOR ION    1 DIRECTION 1 (eV/Angst/Angst)
      0.00000      0.00000      0.00000        -1.372965      0.000000      0.000000
     -3.14187      3.14187      3.14187         1.372965     -0.000000     -0.000000
    total drift:                                0.000000      0.000000      0.000000

 BORN EFFECTIVE CHARGE FOR ION    1 DIRECTION 1 :   1.125  -0.000   0.000
                   rigid augmentation           :  -1.488  -0.000   0.000
                   ionic contribution           :   9.000  -0.000   0.000
                   Berry contribution           :  -6.387   0.000  -0.000

 Linear response progress:
  Degree of freedom:   2/  4
  LATTYP: Found a face centered cubic cell.
 ALAT       =     6.2837421173

[...]

 Linear response progress:
  Degree of freedom:   4/  4
  LATTYP: Found a face centered cubic cell.
 ALAT       =     6.2837421173

[...]

The dynamic configuration has the point symmetry C_1h.

[...]

----------------------------------------- Iteration    8(  15)  ---------------------------------------

 Broyden mixing:
  rms(total) = 0.50843E-05    rms(broyden)= 0.50843E-05
  rms(prec ) = 0.52218E-05
  weight for this iteration     100.00

 eigenvalues of (default mixing * dielectric matrix)
  average eigenvalue GAMMA=   1.7441
  3.3959  3.1954  2.8327  2.3271  2.2981  1.6348  1.4504  1.0547  0.8985  0.8985
  0.9304  0.9304  0.8271

 Free energy of the ion-electron system (eV)
  -Hartree energ DENC   =        -0.10786896
  -V(xc)+E(xc)   XCENC  =         0.00044586
  PAW double counting   =         0.00002012       -0.00002022
  entropy T*S    EENTRO =        -0.00000000
  eigenvalues    EBANDS =        -0.09180833
  free energy    TOTEN  =        -0.19923153 eV

  energy without entropy =       -0.19923153

[...]

 k-point 476 :      -0.0000   -0.5000   -0.5000
  band No.  band energies     occupation
      1      -0.0001      0.00000
      2       0.0002      0.00000
      3      -0.0001      0.00000
      4      -0.0001      0.00000
      5      -0.0000      0.00000
      6       0.0001      0.00000
      7       0.0002      0.00000
      8       0.0001      0.00000
      9       0.0000      0.00000
     10       0.0000      0.00000
     11       0.0001      0.00000
     12      -0.0000      0.00000
     13      -0.0000      0.00000
     14      -0.0000      0.00000
     15      -0.0000      0.00000
     16       0.0001      0.00000

------------------------ aborting loop because EDIFF is reached ----------------------------------------

 INTERNAL STRAIN TENSOR  FOR ION    2  DIRECTION 2   (eV/Angst):
     0.00039  0.00050  0.00000
     0.00050  0.00088  0.00000
     0.00000  0.00000 -0.00013

 POSITION                   FORCE-CONSTANT FOR ION    2 DIRECTION 2 (eV/Angst/Angst)
      0.00000      0.00000      0.00000         0.000011      1.382846     -0.000000
     -3.14187      3.14187      3.14187        -0.000011     -1.382846      0.000000
    total drift:                               -0.000000      0.000000      0.000000

 BORN EFFECTIVE CHARGE FOR ION    2 DIRECTION 2 :  -0.000  -1.125   0.000
                   rigid augmentation           :  -0.000   0.943  -0.000
                   ionic contribution           :  -0.000   7.000  -0.000
                   Berry contribution           :  -0.000  -9.068   0.000

  LATTYP: Found a face centered cubic cell.
 ALAT       =     6.2837421173

  Lattice vectors:

 A1 = (  -3.1418710587,   0.0000000000,   3.1418710587)
 A2 = (   0.0000000000,   3.1418710587,   3.1418710587)
 A3 = (  -3.1418710587,   3.1418710587,   0.0000000000)

Analysis of symmetry for initial positions (statically):
 Subroutine PRICEL returns:
 Original cell was already a primitive cell.

[...]

The static configuration has the point symmetry C_4v.

Analysis of symmetry for dynamics (positions and initial velocities):
 Subroutine PRICEL returns:
 Original cell was already a primitive cell.

 Routine SETGRP: Setting up the symmetry group for a
 face centered cubic supercell.

 Subroutine GETGRP returns: Found  8 space group operations
 (whereof  8 operations were pure point group operations)
 out of a pool of 48 trial point group operations.

The dynamic configuration has the point symmetry C_4v.

 Subroutine INISYM returns: Found  8 space group operations
 (whereof  8 operations are pure point group operations),
 and found     1 'primitive' translations

 MACROSCOPIC STATIC DIELECTRIC TENSOR (including local field effects in DFT)
           2.328865    -0.000000     0.000000
          -0.000000     2.328867    -0.000000
           0.000000    -0.000000     2.328867

 PIEZOELECTRIC TENSOR  for field in x, y, z        (e  Angst)
          XX          YY          ZZ          XY          YZ          ZX
  x     0.00004     0.00002     0.00002    -0.00000    -0.00000     0.00000
  y    -0.00004    -0.00001    -0.00002     0.00016     0.00000    -0.00000
  z    -0.00000    -0.00001    -0.00000    -0.00000     0.00000    -0.00004

 PIEZOELECTRIC TENSOR  for field in x, y, z        (C/m^2)
          XX          YY          ZZ          XY          YZ          ZX
  x     0.00001     0.00001     0.00001    -0.00000    -0.00000     0.00000
  y    -0.00000    -0.00000     0.00000     0.00002     0.00000    -0.00000
  z     0.00000     0.00000     0.00000    -0.00000    -0.00000     0.00002

 BORN EFFECTIVE CHARGES (in e, cummulative output)
 ion    1
    1     1.12522     0.00000     0.00000
    2     0.00000     1.12522    -0.00000
    3     0.00000     0.00000     1.12522
 ion    2
    1    -1.12522    -0.00000    -0.00000
    2    -0.00000    -1.12522     0.00000
    3    -0.00000    -0.00000    -1.12522

 INTERNAL STRAIN TENSOR FOR ION    1 for displacements in x,y,z  (eV/Angst):
          X           Y           Z          XY          YZ          ZX
  x     0.00039    -0.00014    -0.00014     0.00000     0.00000    -0.00000
  y     0.00000     0.00000     0.00000    -0.00172    -0.00000     0.00000
  z     0.00000     0.00000     0.00000     0.00000     0.00000    -0.00173

 INTERNAL STRAIN TENSOR FOR ION    2 for displacements in x,y,z  (eV/Angst):
          X           Y           Z          XY          YZ          ZX
  x    -0.00039    -0.00026    -0.00026     0.00000     0.00000    -0.00000
  y     0.00000     0.00000     0.00000     0.00050     0.00000    -0.00000
  z     0.00000     0.00000     0.00000    -0.00000    -0.00000     0.00050

 SECOND DERIVATIVES (NOT SYMMETRIZED)
               1X          1Y          1Z          2X          2Y          2Z
  1X    -1.372965    0.000000   -0.000000    1.372965   -0.000000    0.000000
  1Y     0.000000   -1.373054    0.000000   -0.000000    1.373054   -0.000000
  1Z    -0.000000    0.000000   -1.373054    0.000000   -0.000000    1.373054
  2X     1.382979   -0.000000    0.000000   -1.382979    0.000000   -0.000000
  2Y    -0.000000    1.382846   -0.000000    0.000000   -1.382846    0.000000
  2Z     0.000000   -0.000000    1.382846   -0.000000    0.000000   -1.382846

 Eigenvectors and eigenvalues of the dynamical matrix

   1 f  =    4.256309 THz    26.743178 2PiTHz  141.975178 cm-1    17.602685 meV
             X         Y         Z           dx          dy          dz
      0.000000  0.000000  0.000000     0.688289    0.000000   -0.000000
     -3.141871  3.141871  3.141871    -0.725437   -0.000000   -0.000000

[...]

   3 f  =    4.256267 THz    26.742913 2PiTHz  141.973774 cm-1    17.602511 meV
             X         Y         Z           dx          dy          dz
      0.000000  0.000000  0.000000    -0.000000    0.000000   -0.688318
     -3.141871  3.141871  3.141871     0.000000    0.000000    0.725409

   4 f/i=    0.007551 THz     0.047444 2PiTHz    0.251874 cm-1     0.031228 meV
             X         Y         Z           dx          dy          dz
      0.000000  0.000000  0.000000    -0.000000   -0.217172    0.692138
     -3.141871  3.141871  3.141871    -0.000000   -0.206068    0.656748

[...]

   6 f/i=    0.007722 THz     0.048518 2PiTHz    0.257575 cm-1     0.031935 meV
             X         Y         Z           dx          dy          dz
      0.000000  0.000000  0.000000     0.725437   -0.000000    0.000000
     -3.141871  3.141871  3.141871     0.688289   -0.000000    0.000000

 MACROSCOPIC STATIC DIELECTRIC TENSOR IONIC CONTRIBUTION
           2.680398     0.000001     0.000003
           0.000001     2.680459     0.000000
           0.000003     0.000000     2.680459

 ELASTIC MODULI IONIC CONTR (kBar)
 Direction    XX          YY          ZZ          XY          YZ          ZX
 XX          -0.0000     -0.0000     -0.0000     -0.0000      0.0000      0.0000
 YY          -0.0000     -0.0000     -0.0000     -0.0000      0.0000      0.0000
 ZZ          -0.0000     -0.0000     -0.0000     -0.0000      0.0000      0.0000
 XY          -0.0000     -0.0000     -0.0000     -0.0000     -0.0000      0.0000
 YZ           0.0000      0.0000      0.0000     -0.0000     -0.0000      0.0000
 ZX           0.0000      0.0000      0.0000      0.0000      0.0000     -0.0000

 PIEZOELECTRIC TENSOR IONIC CONTR  for field in x, y, z        (C/m^2)
          XX          YY          ZZ          XY          YZ          ZX
  x     0.00008     0.00001     0.00001     0.00000    -0.00000    -0.00000
  y     0.00000     0.00000     0.00000    -0.00023    -0.00000     0.00000
  z     0.00000     0.00000     0.00000     0.00000     0.00000    -0.00023